@relation email_data

@attribute _ {0,1}
@attribute __ {0,1}
@attribute ___ {0,1}
@attribute _____ {0,1}
@attribute a {0,1}
@attribute able {0,1}
@attribute about {0,1}
@attribute above {0,1}
@attribute ac {0,1}
@attribute access {0,1}
@attribute activities {0,1}
@attribute actually {0,1}
@attribute add {0,1}
@attribute address {0,1}
@attribute after {0,1}
@attribute again {0,1}
@attribute against {0,1}
@attribute age {0,1}
@attribute ago {0,1}
@attribute agree {0,1}
@attribute aids {0,1}
@attribute air {0,1}
@attribute al {0,1}
@attribute alaska {0,1}
@attribute all {0,1}
@attribute allen {0,1}
@attribute almost {0,1}
@attribute alomar {0,1}
@attribute already {0,1}
@attribute also {0,1}
@attribute although {0,1}
@attribute always {0,1}
@attribute am {0,1}
@attribute american {0,1}
@attribute ames {0,1}
@attribute among {0,1}
@attribute amount {0,1}
@attribute an {0,1}
@attribute analysis {0,1}
@attribute and {0,1}
@attribute anonymous {0,1}
@attribute another {0,1}
@attribute answer {0,1}
@attribute any {0,1}
@attribute anybody {0,1}
@attribute anyone {0,1}
@attribute anything {0,1}
@attribute apparently {0,1}
@attribute apr {0,1}
@attribute april {0,1}
@attribute archive {0,1}
@attribute are {0,1}
@attribute area {0,1}
@attribute aren {0,1}
@attribute around {0,1}
@attribute article {0,1}
@attribute as {0,1}
@attribute ask {0,1}
@attribute asked {0,1}
@attribute associated {0,1}
@attribute astronomy {0,1}
@attribute at {0,1}
@attribute atlanta {0,1}
@attribute atmosphere {0,1}
@attribute au {0,1}
@attribute available {0,1}
@attribute average {0,1}
@attribute away {0,1}
@attribute b {0,1}
@attribute baalke {0,1}
@attribute back {0,1}
@attribute bad {0,1}
@attribute ball {0,1}
@attribute baltimore {0,1}
@attribute banks {0,1}
@attribute base {0,1}
@attribute baseball {0,1}
@attribute based {0,1}
@attribute bases {0,1}
@attribute basic {0,1}
@attribute basically {0,1}
@attribute bat {0,1}
@attribute be {0,1}
@attribute because {0,1}
@attribute become {0,1}
@attribute been {0,1}
@attribute before {0,1}
@attribute being {0,1}
@attribute believe {0,1}
@attribute below {0,1}
@attribute berkeley {0,1}
@attribute best {0,1}
@attribute better {0,1}
@attribute between {0,1}
@attribute big {0,1}
@attribute bill {0,1}
@attribute billion {0,1}
@attribute bit {0,1}
@attribute bitnet {0,1}
@attribute black {0,1}
@attribute blood {0,1}
@attribute blue {0,1}
@attribute bob {0,1}
@attribute body {0,1}
@attribute book {0,1}
@attribute boston {0,1}
@attribute both {0,1}
@attribute box {0,1}
@attribute brain {0,1}
@attribute braves {0,1}
@attribute brian {0,1}
@attribute build {0,1}
@attribute built {0,1}
@attribute business {0,1}
@attribute but {0,1}
@attribute by {0,1}
@attribute c {0,1}
@attribute ca {0,1}
@attribute cadre {0,1}
@attribute california {0,1}
@attribute call {0,1}
@attribute called {0,1}
@attribute came {0,1}
@attribute can {0,1}
@attribute cancer {0,1}
@attribute cannot {0,1}
@attribute care {0,1}
@attribute career {0,1}
@attribute case {0,1}
@attribute cases {0,1}
@attribute cause {0,1}
@attribute cc {0,1}
@attribute center {0,1}
@attribute centers {0,1}
@attribute certain {0,1}
@attribute certainly {0,1}
@attribute chance {0,1}
@attribute change {0,1}
@attribute changes {0,1}
@attribute chastity {0,1}
@attribute check {0,1}
@attribute chicago {0,1}
@attribute child {0,1}
@attribute children {0,1}
@attribute chinese {0,1}
@attribute city {0,1}
@attribute clear {0,1}
@attribute clinical {0,1}
@attribute close {0,1}
@attribute cmu {0,1}
@attribute co {0,1}
@attribute colorado {0,1}
@attribute com {0,1}
@attribute come {0,1}
@attribute comes {0,1}
@attribute comet {0,1}
@attribute commercial {0,1}
@attribute common {0,1}
@attribute companies {0,1}
@attribute company {0,1}
@attribute computer {0,1}
@attribute consider {0,1}
@attribute considered {0,1}
@attribute contact {0,1}
@attribute control {0,1}
@attribute correct {0,1}
@attribute cost {0,1}
@attribute costs {0,1}
@attribute could {0,1}
@attribute couple {0,1}
@attribute course {0,1}
@attribute cs {0,1}
@attribute cso {0,1}
@attribute cubs {0,1}
@attribute current {0,1}
@attribute currently {0,1}
@attribute cut {0,1}
@attribute d {0,1}
@attribute data {0,1}
@attribute date {0,1}
@attribute dave {0,1}
@attribute david {0,1}
@attribute day {0,1}
@attribute days {0,1}
@attribute dc {0,1}
@attribute de {0,1}
@attribute deal {0,1}
@attribute defense {0,1}
@attribute defensive {0,1}
@attribute department {0,1}
@attribute dept {0,1}
@attribute design {0,1}
@attribute designed {0,1}
@attribute developed {0,1}
@attribute development {0,1}
@attribute did {0,1}
@attribute didn {0,1}
@attribute diet {0,1}
@attribute difference {0,1}
@attribute different {0,1}
@attribute digex {0,1}
@attribute disease {0,1}
@attribute diseases {0,1}
@attribute division {0,1}
@attribute do {0,1}
@attribute doctor {0,1}
@attribute dodgers {0,1}
@attribute does {0,1}
@attribute doesn {0,1}
@attribute doing {0,1}
@attribute don {0,1}
@attribute done {0,1}
@attribute doug {0,1}
@attribute down {0,1}
@attribute dr {0,1}
@attribute drug {0,1}
@attribute dseg {0,1}
@attribute dsl {0,1}
@attribute due {0,1}
@attribute duke {0,1}
@attribute during {0,1}
@attribute dyer {0,1}
@attribute e {0,1}
@attribute each {0,1}
@attribute early {0,1}
@attribute earth {0,1}
@attribute east {0,1}
@attribute eat {0,1}
@attribute edu {0,1}
@attribute effect {0,1}
@attribute effective {0,1}
@attribute effects {0,1}
@attribute either {0,1}
@attribute else {0,1}
@attribute email {0,1}
@attribute end {0,1}
@attribute energy {0,1}
@attribute eng {0,1}
@attribute engineering {0,1}
@attribute enough {0,1}
@attribute era {0,1}
@attribute especially {0,1}
@attribute etc {0,1}
@attribute even {0,1}
@attribute ever {0,1}
@attribute every {0,1}
@attribute everyone {0,1}
@attribute everything {0,1}
@attribute evidence {0,1}
@attribute exactly {0,1}
@attribute example {0,1}
@attribute except {0,1}
@attribute expected {0,1}
@attribute experience {0,1}
@attribute experiment {0,1}
@attribute exploration {0,1}
@attribute extra {0,1}
@attribute eye {0,1}
@attribute f {0,1}
@attribute face {0,1}
@attribute fact {0,1}
@attribute fan {0,1}
@attribute fans {0,1}
@attribute faq {0,1}
@attribute far {0,1}
@attribute fax {0,1}
@attribute feel {0,1}
@attribute few {0,1}
@attribute field {0,1}
@attribute figure {0,1}
@attribute find {0,1}
@attribute first {0,1}
@attribute five {0,1}
@attribute flight {0,1}
@attribute following {0,1}
@attribute food {0,1}
@attribute foods {0,1}
@attribute for {0,1}
@attribute force {0,1}
@attribute form {0,1}
@attribute found {0,1}
@attribute four {0,1}
@attribute frank {0,1}
@attribute fred {0,1}
@attribute free {0,1}
@attribute friend {0,1}
@attribute from {0,1}
@attribute ftp {0,1}
@attribute fuel {0,1}
@attribute full {0,1}
@attribute funding {0,1}
@attribute further {0,1}
@attribute future {0,1}
@attribute g {0,1}
@attribute game {0,1}
@attribute games {0,1}
@attribute gary {0,1}
@attribute gatech {0,1}
@attribute geb {0,1}
@attribute general {0,1}
@attribute get {0,1}
@attribute gets {0,1}
@attribute getting {0,1}
@attribute give {0,1}
@attribute given {0,1}
@attribute go {0,1}
@attribute goes {0,1}
@attribute going {0,1}
@attribute good {0,1}
@attribute gordon {0,1}
@attribute got {0,1}
@attribute gov {0,1}
@attribute government {0,1}
@attribute great {0,1}
@attribute ground {0,1}
@attribute group {0,1}
@attribute groups {0,1}
@attribute guess {0,1}
@attribute guy {0,1}
@attribute guys {0,1}
@attribute h {0,1}
@attribute had {0,1}
@attribute half {0,1}
@attribute hall {0,1}
@attribute hand {0,1}
@attribute happened {0,1}
@attribute hard {0,1}
@attribute harvard {0,1}
@attribute has {0,1}
@attribute have {0,1}
@attribute haven {0,1}
@attribute having {0,1}
@attribute he {0,1}
@attribute head {0,1}
@attribute health {0,1}
@attribute heard {0,1}
@attribute help {0,1}
@attribute henry {0,1}
@attribute her {0,1}
@attribute here {0,1}
@attribute hicnet {0,1}
@attribute higgins {0,1}
@attribute high {0,1}
@attribute higher {0,1}
@attribute him {0,1}
@attribute his {0,1}
@attribute history {0,1}
@attribute hit {0,1}
@attribute hits {0,1}
@attribute hitter {0,1}
@attribute hitting {0,1}
@attribute hiv {0,1}
@attribute hold {0,1}
@attribute home {0,1}
@attribute hope {0,1}
@attribute hours {0,1}
@attribute houston {0,1}
@attribute how {0,1}
@attribute however {0,1}
@attribute hr {0,1}
@attribute human {0,1}
@attribute i {0,1}
@attribute ibm {0,1}
@attribute idea {0,1}
@attribute ideas {0,1}
@attribute if {0,1}
@attribute image {0,1}
@attribute images {0,1}
@attribute important {0,1}
@attribute in {0,1}
@attribute inc {0,1}
@attribute include {0,1}
@attribute including {0,1}
@attribute increased {0,1}
@attribute individual {0,1}
@attribute industry {0,1}
@attribute info {0,1}
@attribute information {0,1}
@attribute injury {0,1}
@attribute instead {0,1}
@attribute institute {0,1}
@attribute intellect {0,1}
@attribute interested {0,1}
@attribute interesting {0,1}
@attribute international {0,1}
@attribute internet {0,1}
@attribute into {0,1}
@attribute involved {0,1}
@attribute is {0,1}
@attribute isn {0,1}
@attribute issue {0,1}
@attribute it {0,1}
@attribute its {0,1}
@attribute j {0,1}
@attribute james {0,1}
@attribute japanese {0,1}
@attribute jim {0,1}
@attribute job {0,1}
@attribute joe {0,1}
@attribute john {0,1}
@attribute jpl {0,1}
@attribute jupiter {0,1}
@attribute just {0,1}
@attribute k {0,1}
@attribute keep {0,1}
@attribute key {0,1}
@attribute keyboard {0,1}
@attribute kind {0,1}
@attribute km {0,1}
@attribute know {0,1}
@attribute knowledge {0,1}
@attribute known {0,1}
@attribute l {0,1}
@attribute lab {0,1}
@attribute laboratory {0,1}
@attribute lady {0,1}
@attribute large {0,1}
@attribute last {0,1}
@attribute late {0,1}
@attribute later {0,1}
@attribute launch {0,1}
@attribute launched {0,1}
@attribute lead {0,1}
@attribute league {0,1}
@attribute learn {0,1}
@attribute least {0,1}
@attribute left {0,1}
@attribute less {0,1}
@attribute let {0,1}
@attribute level {0,1}
@attribute levels {0,1}
@attribute life {0,1}
@attribute light {0,1}
@attribute like {0,1}
@attribute likely {0,1}
@attribute line {0,1}
@attribute list {0,1}
@attribute little {0,1}
@attribute live {0,1}
@attribute ll {0,1}
@attribute local {0,1}
@attribute long {0,1}
@attribute look {0,1}
@attribute looked {0,1}
@attribute looking {0,1}
@attribute looks {0,1}
@attribute lopez {0,1}
@attribute loss {0,1}
@attribute lost {0,1}
@attribute lot {0,1}
@attribute lots {0,1}
@attribute low {0,1}
@attribute lunar {0,1}
@attribute m {0,1}
@attribute made {0,1}
@attribute mail {0,1}
@attribute major {0,1}
@attribute make {0,1}
@attribute makes {0,1}
@attribute making {0,1}
@attribute man {0,1}
@attribute management {0,1}
@attribute manager {0,1}
@attribute many {0,1}
@attribute mark {0,1}
@attribute mars {0,1}
@attribute mass {0,1}
@attribute matter {0,1}
@attribute may {0,1}
@attribute maybe {0,1}
@attribute me {0,1}
@attribute mean {0,1}
@attribute means {0,1}
@attribute medical {0,1}
@attribute medicine {0,1}
@attribute mentioned {0,1}
@attribute mets {0,1}
@attribute michael {0,1}
@attribute might {0,1}
@attribute mike {0,1}
@attribute military {0,1}
@attribute million {0,1}
@attribute mind {0,1}
@attribute mine {0,1}
@attribute minutes {0,1}
@attribute mission {0,1}
@attribute missions {0,1}
@attribute model {0,1}
@attribute money {0,1}
@attribute months {0,1}
@attribute moon {0,1}
@attribute more {0,1}
@attribute morris {0,1}
@attribute most {0,1}
@attribute msg {0,1}
@attribute much {0,1}
@attribute must {0,1}
@attribute my {0,1}
@attribute n {0,1}
@attribute n3jxp {0,1}
@attribute name {0,1}
@attribute nasa {0,1}
@attribute national {0,1}
@attribute natural {0,1}
@attribute near {0,1}
@attribute need {0,1}
@attribute net {0,1}
@attribute netcom {0,1}
@attribute never {0,1}
@attribute new {0,1}
@attribute news {0,1}
@attribute newsletter {0,1}
@attribute next {0,1}
@attribute night {0,1}
@attribute nl {0,1}
@attribute no {0,1}
@attribute non {0,1}
@attribute normal {0,1}
@attribute not {0,1}
@attribute note {0,1}
@attribute nothing {0,1}
@attribute now {0,1}
@attribute nsmca {0,1}
@attribute number {0,1}
@attribute numbers {0,1}
@attribute o {0,1}
@attribute object {0,1}
@attribute observatory {0,1}
@attribute of {0,1}
@attribute off {0,1}
@attribute offense {0,1}
@attribute office {0,1}
@attribute often {0,1}
@attribute oh {0,1}
@attribute ok {0,1}
@attribute old {0,1}
@attribute on {0,1}
@attribute once {0,1}
@attribute one {0,1}
@attribute only {0,1}
@attribute opinions {0,1}
@attribute or {0,1}
@attribute orbit {0,1}
@attribute orbital {0,1}
@attribute orbiter {0,1}
@attribute order {0,1}
@attribute org {0,1}
@attribute organization {0,1}
@attribute other {0,1}
@attribute others {0,1}
@attribute otherwise {0,1}
@attribute our {0,1}
@attribute out {0,1}
@attribute over {0,1}
@attribute own {0,1}
@attribute p {0,1}
@attribute page {0,1}
@attribute pain {0,1}
@attribute paper {0,1}
@attribute part {0,1}
@attribute particular {0,1}
@attribute past {0,1}
@attribute pat {0,1}
@attribute patient {0,1}
@attribute patients {0,1}
@attribute paul {0,1}
@attribute pc {0,1}
@attribute people {0,1}
@attribute per {0,1}
@attribute perhaps {0,1}
@attribute person {0,1}
@attribute philadelphia {0,1}
@attribute phillies {0,1}
@attribute phone {0,1}
@attribute pitch {0,1}
@attribute pitcher {0,1}
@attribute pitchers {0,1}
@attribute pitching {0,1}
@attribute pitt {0,1}
@attribute pittsburgh {0,1}
@attribute place {0,1}
@attribute planet {0,1}
@attribute planetary {0,1}
@attribute play {0,1}
@attribute player {0,1}
@attribute players {0,1}
@attribute playing {0,1}
@attribute please {0,1}
@attribute point {0,1}
@attribute political {0,1}
@attribute position {0,1}
@attribute possible {0,1}
@attribute post {0,1}
@attribute posted {0,1}
@attribute posting {0,1}
@attribute posts {0,1}
@attribute potential {0,1}
@attribute power {0,1}
@attribute press {0,1}
@attribute pressure {0,1}
@attribute pretty {0,1}
@attribute probably {0,1}
@attribute probe {0,1}
@attribute problem {0,1}
@attribute problems {0,1}
@attribute process {0,1}
@attribute products {0,1}
@attribute program {0,1}
@attribute programs {0,1}
@attribute project {0,1}
@attribute propulsion {0,1}
@attribute provide {0,1}
@attribute public {0,1}
@attribute published {0,1}
@attribute purpose {0,1}
@attribute put {0,1}
@attribute question {0,1}
@attribute questions {0,1}
@attribute quite {0,1}
@attribute r {0,1}
@attribute radio {0,1}
@attribute range {0,1}
@attribute rate {0,1}
@attribute rather {0,1}
@attribute rbi {0,1}
@attribute re {0,1}
@attribute reaction {0,1}
@attribute read {0,1}
@attribute reading {0,1}
@attribute real {0,1}
@attribute really {0,1}
@attribute reason {0,1}
@attribute recent {0,1}
@attribute recently {0,1}
@attribute record {0,1}
@attribute red {0,1}
@attribute reds {0,1}
@attribute related {0,1}
@attribute remember {0,1}
@attribute report {0,1}
@attribute reported {0,1}
@attribute reports {0,1}
@attribute research {0,1}
@attribute rest {0,1}
@attribute result {0,1}
@attribute results {0,1}
@attribute richard {0,1}
@attribute right {0,1}
@attribute risk {0,1}
@attribute road {0,1}
@attribute robert {0,1}
@attribute rochester {0,1}
@attribute rocket {0,1}
@attribute rockets {0,1}
@attribute ron {0,1}
@attribute run {0,1}
@attribute runs {0,1}
@attribute s {0,1}
@attribute safety {0,1}
@attribute said {0,1}
@attribute same {0,1}
@attribute san {0,1}
@attribute sas {0,1}
@attribute satellite {0,1}
@attribute satellites {0,1}
@attribute saturn {0,1}
@attribute saw {0,1}
@attribute say {0,1}
@attribute saying {0,1}
@attribute says {0,1}
@attribute school {0,1}
@attribute sci {0,1}
@attribute science {0,1}
@attribute scientific {0,1}
@attribute scientists {0,1}
@attribute score {0,1}
@attribute season {0,1}
@attribute second {0,1}
@attribute section {0,1}
@attribute see {0,1}
@attribute seem {0,1}
@attribute seems {0,1}
@attribute seen {0,1}
@attribute send {0,1}
@attribute sense {0,1}
@attribute sent {0,1}
@attribute series {0,1}
@attribute serious {0,1}
@attribute service {0,1}
@attribute services {0,1}
@attribute set {0,1}
@attribute several {0,1}
@attribute shameful {0,1}
@attribute she {0,1}
@attribute short {0,1}
@attribute should {0,1}
@attribute show {0,1}
@attribute shuttle {0,1}
@attribute sick {0,1}
@attribute side {0,1}
@attribute significant {0,1}
@attribute similar {0,1}
@attribute simply {0,1}
@attribute since {0,1}
@attribute single {0,1}
@attribute situation {0,1}
@attribute skepticism {0,1}
@attribute small {0,1}
@attribute smith {0,1}
@attribute so {0,1}
@attribute society {0,1}
@attribute software {0,1}
@attribute solar {0,1}
@attribute solid {0,1}
@attribute some {0,1}
@attribute someone {0,1}
@attribute something {0,1}
@attribute sometimes {0,1}
@attribute soon {0,1}
@attribute sorry {0,1}
@attribute sort {0,1}
@attribute sounds {0,1}
@attribute source {0,1}
@attribute sources {0,1}
@attribute sox {0,1}
@attribute space {0,1}
@attribute spacecraft {0,1}
@attribute spdcc {0,1}
@attribute speak {0,1}
@attribute special {0,1}
@attribute specific {0,1}
@attribute speed {0,1}
@attribute spencer {0,1}
@attribute spring {0,1}
@attribute st {0,1}
@attribute staff {0,1}
@attribute stage {0,1}
@attribute standard {0,1}
@attribute star {0,1}
@attribute start {0,1}
@attribute started {0,1}
@attribute state {0,1}
@attribute states {0,1}
@attribute station {0,1}
@attribute stats {0,1}
@attribute steve {0,1}
@attribute still {0,1}
@attribute street {0,1}
@attribute studies {0,1}
@attribute study {0,1}
@attribute stuff {0,1}
@attribute subject {0,1}
@attribute such {0,1}
@attribute sun {0,1}
@attribute support {0,1}
@attribute sure {0,1}
@attribute surface {0,1}
@attribute surrender {0,1}
@attribute suspect {0,1}
@attribute symptoms {0,1}
@attribute syndrome {0,1}
@attribute system {0,1}
@attribute systems {0,1}
@attribute t {0,1}
@attribute take {0,1}
@attribute taken {0,1}
@attribute taking {0,1}
@attribute talk {0,1}
@attribute talking {0,1}
@attribute team {0,1}
@attribute teams {0,1}
@attribute technical {0,1}
@attribute technology {0,1}
@attribute ted {0,1}
@attribute telescope {0,1}
@attribute tell {0,1}
@attribute term {0,1}
@attribute test {0,1}
@attribute tests {0,1}
@attribute than {0,1}
@attribute thank {0,1}
@attribute thanks {0,1}
@attribute that {0,1}
@attribute the {0,1}
@attribute their {0,1}
@attribute them {0,1}
@attribute then {0,1}
@attribute theory {0,1}
@attribute there {0,1}
@attribute these {0,1}
@attribute they {0,1}
@attribute thing {0,1}
@attribute things {0,1}
@attribute think {0,1}
@attribute thinking {0,1}
@attribute third {0,1}
@attribute this {0,1}
@attribute thomas {0,1}
@attribute those {0,1}
@attribute though {0,1}
@attribute thought {0,1}
@attribute three {0,1}
@attribute through {0,1}
@attribute ti {0,1}
@attribute time {0,1}
@attribute times {0,1}
@attribute titan {0,1}
@attribute to {0,1}
@attribute tobacco {0,1}
@attribute today {0,1}
@attribute told {0,1}
@attribute tom {0,1}
@attribute too {0,1}
@attribute took {0,1}
@attribute top {0,1}
@attribute toronto {0,1}
@attribute total {0,1}
@attribute training {0,1}
@attribute treatment {0,1}
@attribute tried {0,1}
@attribute true {0,1}
@attribute try {0,1}
@attribute trying {0,1}
@attribute two {0,1}
@attribute type {0,1}
@attribute u {0,1}
@attribute uiuc {0,1}
@attribute uk {0,1}
@attribute under {0,1}
@attribute understand {0,1}
@attribute united {0,1}
@attribute university {0,1}
@attribute unless {0,1}
@attribute until {0,1}
@attribute up {0,1}
@attribute us {0,1}
@attribute use {0,1}
@attribute used {0,1}
@attribute useful {0,1}
@attribute users {0,1}
@attribute using {0,1}
@attribute usually {0,1}
@attribute uucp {0,1}
@attribute v {0,1}
@attribute value {0,1}
@attribute various {0,1}
@attribute ve {0,1}
@attribute vehicle {0,1}
@attribute venus {0,1}
@attribute very {0,1}
@attribute volume {0,1}
@attribute w {0,1}
@attribute want {0,1}
@attribute wanted {0,1}
@attribute was {0,1}
@attribute washington {0,1}
@attribute wasn {0,1}
@attribute water {0,1}
@attribute way {0,1}
@attribute we {0,1}
@attribute week {0,1}
@attribute weeks {0,1}
@attribute weight {0,1}
@attribute well {0,1}
@attribute went {0,1}
@attribute were {0,1}
@attribute west {0,1}
@attribute what {0,1}
@attribute whatever {0,1}
@attribute when {0,1}
@attribute where {0,1}
@attribute whether {0,1}
@attribute which {0,1}
@attribute while {0,1}
@attribute white {0,1}
@attribute who {0,1}
@attribute whole {0,1}
@attribute why {0,1}
@attribute wife {0,1}
@attribute will {0,1}
@attribute win {0,1}
@attribute winning {0,1}
@attribute wins {0,1}
@attribute with {0,1}
@attribute within {0,1}
@attribute without {0,1}
@attribute women {0,1}
@attribute won {0,1}
@attribute wondering {0,1}
@attribute word {0,1}
@attribute work {0,1}
@attribute working {0,1}
@attribute works {0,1}
@attribute world {0,1}
@attribute worse {0,1}
@attribute would {0,1}
@attribute wouldn {0,1}
@attribute writes {0,1}
@attribute wrong {0,1}
@attribute wrote {0,1}
@attribute x {0,1}
@attribute yankees {0,1}
@attribute yeah {0,1}
@attribute year {0,1}
@attribute years {0,1}
@attribute yeast {0,1}
@attribute yes {0,1}
@attribute yet {0,1}
@attribute york {0,1}
@attribute you {0,1}
@attribute young {0,1}
@attribute your {0,1}
@attribute zoo {0,1}
@attribute interesting {0,1}

@data

{4 1,13 1,15 1,24 1,37 1,39 1,43 1,45 1,51 1,56 1,61 1,71 1,73 1,76 1,85 1,101 1,104 1,114 1,115 1,116 1,121 1,123 1,165 1,168 1,240 1,243 1,244 1,262 1,271 1,277 1,281 1,286 1,294 1,328 1,329 1,330 1,331 1,339 1,345 1,357 1,361 1,363 1,365 1,369 1,385 1,386 1,388 1,391 1,448 1,451 1,463 1,495 1,510 1,515 1,521 1,525 1,528 1,536 1,538 1,567 1,577 1,600 1,630 1,635 1,638 1,657 1,660 1,690 1,710 1,733 1,735 1,745 1,763 1,769 1,770 1,782 1,783 1,784 1,790 1,793 1,796 1,798 1,807 1,815 1,831 1,854 1,863 1,870 1,880 1,883 1,906 1,909 1,913 1}
{4 1,6 1,24 1,32 1,39 1,43 1,56 1,61 1,65 1,80 1,85 1,114 1,115 1,121 1,123 1,130 1,159 1,167 1,193 1,201 1,215 1,239 1,267 1,277 1,280 1,285 1,300 1,328 1,329 1,332 1,336 1,345 1,352 1,357 1,361 1,364 1,369 1,371 1,388 1,409 1,417 1,448 1,470 1,488 1,505 1,510 1,528 1,529 1,535 1,536 1,552 1,563 1,567 1,568 1,603 1,608 1,611 1,633 1,639 1,657 1,709 1,714 1,759 1,781 1,782 1,783 1,784 1,788 1,796 1,798 1,804 1,807 1,823 1,824 1,849 1,870 1,872 1,875 1,879 1,883 1,903 1,904 1,909 1}
{4 1,6 1,12 1,19 1,39 1,55 1,61 1,82 1,99 1,117 1,123 1,125 1,204 1,210 1,228 1,277 1,281 1,286 1,345 1,352 1,361 1,369 1,372 1,388 1,391 1,409 1,416 1,449 1,467 1,491 1,497 1,515 1,516 1,520 1,521 1,528 1,538 1,539 1,569 1,631 1,659 1,667 1,679 1,716 1,725 1,728 1,752 1,763 1,779 1,782 1,783 1,784 1,786 1,789 1,804 1,807 1,811 1,832 1,835 1,854 1,858 1,859 1,863 1,867 1,869 1,879 1,883 1,904 1,909 1}
{4 1,6 1,12 1,15 1,19 1,24 1,29 1,31 1,32 1,36 1,37 1,39 1,41 1,43 1,46 1,51 1,54 1,55 1,56 1,61 1,66 1,67 1,70 1,71 1,72 1,75 1,76 1,77 1,81 1,82 1,83 1,86 1,88 1,92 1,93 1,94 1,95 1,97 1,101 1,102 1,106 1,110 1,114 1,115 1,120 1,121 1,122 1,123 1,134 1,135 1,136 1,137 1,148 1,152 1,153 1,154 1,160 1,161 1,165 1,168 1,177 1,178 1,181 1,187 1,195 1,204 1,207 1,208 1,209 1,210 1,211 1,213 1,223 1,224 1,228 1,232 1,233 1,242 1,243 1,245 1,249 1,250 1,254 1,260 1,266 1,270 1,271 1,277 1,279 1,283 1,284 1,286 1,291 1,294 1,295 1,296 1,300 1,301 1,303 1,304 1,305 1,306 1,308 1,321 1,322 1,324 1,326 1,328 1,329 1,332 1,336 1,339 1,345 1,347 1,348 1,350 1,353 1,357 1,358 1,359 1,361 1,363 1,365 1,368 1,369 1,371 1,373 1,386 1,388 1,390 1,391 1,394 1,398 1,399 1,402 1,403 1,407 1,416 1,417 1,418 1,419 1,422 1,423 1,426 1,427 1,433 1,442 1,444 1,448 1,449 1,453 1,454 1,456 1,457 1,460 1,463 1,464 1,467 1,468 1,470 1,471 1,472 1,478 1,491 1,493 1,497 1,508 1,513 1,515 1,518 1,521 1,523 1,524 1,528 1,529 1,530 1,532 1,534 1,536 1,538 1,539 1,541 1,548 1,549 1,552 1,553 1,561 1,567 1,575 1,576 1,577 1,578 1,583 1,584 1,585 1,588 1,601 1,603 1,607 1,618 1,619 1,623 1,627 1,628 1,630 1,634 1,638 1,640 1,645 1,647 1,655 1,656 1,657 1,660 1,667 1,668 1,675 1,676 1,677 1,679 1,682 1,690 1,691 1,695 1,705 1,707 1,709 1,714 1,716 1,720 1,730 1,738 1,746 1,749 1,755 1,763 1,764 1,769 1,770 1,777 1,779 1,782 1,783 1,784 1,785 1,786 1,788 1,789 1,790 1,791 1,792 1,793 1,794 1,796 1,798 1,799 1,800 1,804 1,805 1,807 1,816 1,834 1,840 1,844 1,846 1,849 1,850 1,854 1,856 1,858 1,859 1,865 1,867 1,869 1,870 1,872 1,873 1,875 1,876 1,877 1,879 1,880 1,881 1,882 1,883 1,885 1,887 1,890 1,892 1,895 1,900 1,903 1,907 1,909 1,911 1,913 1}
{4 1,37 1,39 1,55 1,56 1,71 1,82 1,88 1,114 1,148 1,152 1,154 1,212 1,239 1,286 1,329 1,361 1,369 1,386 1,391 1,464 1,497 1,528 1,647 1,650 1,660 1,763 1,783 1,790 1,791 1,792 1,796 1,807 1,829 1,834 1,854 1,869 1,893 1,895 1,896 1}
{4 1,6 1,12 1,21 1,29 1,34 1,37 1,39 1,50 1,51 1,56 1,61 1,64 1,65 1,75 1,79 1,82 1,93 1,99 1,101 1,115 1,116 1,121 1,123 1,132 1,137 1,177 1,179 1,187 1,189 1,199 1,225 1,231 1,236 1,242 1,251 1,258 1,263 1,277 1,278 1,286 1,293 1,311 1,320 1,369 1,386 1,388 1,393 1,401 1,403 1,408 1,417 1,429 1,432 1,436 1,440 1,442 1,453 1,456 1,465 1,466 1,467 1,471 1,490 1,491 1,495 1,498 1,500 1,501 1,509 1,512 1,516 1,524 1,528 1,536 1,541 1,542 1,543 1,555 1,582 1,607 1,611 1,613 1,615 1,619 1,625 1,626 1,652 1,657 1,660 1,665 1,679 1,712 1,725 1,729 1,730 1,731 1,753 1,762 1,763 1,779 1,782 1,783 1,785 1,792 1,796 1,805 1,806 1,807 1,816 1,820 1,825 1,834 1,835 1,838 1,843 1,846 1,848 1,851 1,854 1,862 1,863 1,870 1,872 1,879 1,883 1,890 1,895 1,900 1,904 1}
{4 1,13 1,22 1,39 1,41 1,45 1,47 1,51 1,56 1,73 1,82 1,85 1,101 1,114 1,115 1,116 1,123 1,168 1,182 1,203 1,241 1,244 1,245 1,277 1,284 1,286 1,294 1,300 1,308 1,321 1,328 1,365 1,369 1,385 1,386 1,388 1,391 1,417 1,422 1,433 1,434 1,445 1,454 1,456 1,469 1,493 1,497 1,525 1,528 1,536 1,539 1,552 1,574 1,600 1,635 1,657 1,676 1,677 1,710 1,735 1,745 1,782 1,783 1,784 1,791 1,796 1,807 1,820 1,849 1,859 1,875 1,880 1,883 1,903 1,909 1,913 1}
{4 1,6 1,9 1,10 1,12 1,13 1,14 1,17 1,24 1,31 1,32 1,39 1,43 1,45 1,51 1,52 1,56 1,61 1,65 1,67 1,70 1,79 1,82 1,95 1,99 1,101 1,102 1,107 1,113 1,115 1,120 1,123 1,126 1,132 1,137 1,138 1,143 1,145 1,152 1,161 1,163 1,181 1,182 1,183 1,196 1,210 1,214 1,222 1,223 1,224 1,233 1,235 1,247 1,251 1,268 1,275 1,277 1,281 1,284 1,286 1,289 1,295 1,308 1,309 1,313 1,315 1,329 1,334 1,337 1,339 1,342 1,345 1,361 1,365 1,369 1,371 1,372 1,377 1,379 1,380 1,385 1,388 1,394 1,396 1,399 1,405 1,409 1,412 1,416 1,418 1,432 1,433 1,436 1,438 1,440 1,442 1,455 1,456 1,457 1,459 1,468 1,469 1,470 1,472 1,477 1,481 1,491 1,498 1,502 1,509 1,513 1,515 1,516 1,525 1,528 1,536 1,538 1,539 1,541 1,545 1,547 1,548 1,552 1,553 1,555 1,567 1,587 1,589 1,591 1,607 1,611 1,612 1,617 1,622 1,639 1,642 1,646 1,647 1,656 1,657 1,670 1,672 1,677 1,679 1,688 1,690 1,716 1,725 1,728 1,729 1,739 1,763 1,779 1,783 1,784 1,785 1,788 1,789 1,796 1,797 1,798 1,801 1,802 1,807 1,816 1,817 1,823 1,825 1,828 1,842 1,853 1,867 1,870 1,872 1,875 1,879 1,881 1,883 1,884 1,890 1,895 1,903 1,904 1,909 1,911 1}
{4 1,6 1,7 1,12 1,13 1,14 1,29 1,36 1,37 1,38 1,39 1,41 1,42 1,49 1,50 1,51 1,55 1,56 1,59 1,61 1,63 1,65 1,66 1,68 1,82 1,83 1,85 1,87 1,89 1,90 1,91 1,92 1,93 1,94 1,100 1,104 1,106 1,107 1,111 1,114 1,115 1,116 1,119 1,122 1,123 1,128 1,132 1,135 1,141 1,145 1,153 1,177 1,178 1,179 1,189 1,199 1,204 1,207 1,208 1,210 1,214 1,220 1,222 1,225 1,229 1,231 1,236 1,239 1,243 1,248 1,251 1,252 1,255 1,259 1,260 1,263 1,267 1,273 1,274 1,277 1,279 1,286 1,288 1,293 1,300 1,303 1,304 1,308 1,309 1,312 1,315 1,316 1,317 1,322 1,325 1,328 1,329 1,334 1,337 1,342 1,343 1,347 1,352 1,357 1,358 1,360 1,363 1,365 1,367 1,369 1,370 1,373 1,378 1,380 1,383 1,386 1,387 1,388 1,389 1,390 1,391 1,392 1,393 1,403 1,409 1,412 1,417 1,420 1,421 1,427 1,433 1,434 1,438 1,439 1,441 1,442 1,443 1,445 1,447 1,448 1,451 1,453 1,454 1,457 1,465 1,468 1,473 1,474 1,477 1,482 1,485 1,486 1,487 1,491 1,493 1,495 1,498 1,500 1,501 1,502 1,503 1,504 1,505 1,506 1,508 1,509 1,512 1,515 1,516 1,518 1,523 1,525 1,528 1,529 1,531 1,536 1,538 1,539 1,541 1,542 1,544 1,545 1,548 1,550 1,551 1,552 1,553 1,554 1,555 1,556 1,559 1,567 1,569 1,580 1,582 1,587 1,588 1,590 1,597 1,598 1,601 1,603 1,604 1,606 1,612 1,613 1,616 1,619 1,625 1,630 1,639 1,642 1,645 1,646 1,648 1,650 1,652 1,653 1,657 1,658 1,660 1,663 1,665 1,671 1,672 1,679 1,685 1,691 1,696 1,697 1,700 1,709 1,710 1,712 1,713 1,714 1,716 1,719 1,722 1,723 1,725 1,739 1,740 1,748 1,749 1,753 1,756 1,761 1,762 1,763 1,766 1,769 1,771 1,779 1,782 1,783 1,784 1,785 1,786 1,787 1,788 1,789 1,790 1,792 1,796 1,801 1,804 1,806 1,807 1,816 1,821 1,823 1,825 1,832 1,834 1,836 1,840 1,843 1,845 1,851 1,854 1,855 1,857 1,862 1,863 1,865 1,867 1,869 1,871 1,872 1,875 1,877 1,879 1,883 1,885 1,895 1,903 1,904 1,907 1,909 1,911 1}
{4 1,6 1,24 1,37 1,39 1,51 1,56 1,61 1,91 1,92 1,97 1,116 1,123 1,166 1,168 1,176 1,177 1,228 1,277 1,281 1,282 1,322 1,329 1,345 1,357 1,358 1,361 1,365 1,369 1,388 1,394 1,428 1,449 1,454 1,475 1,481 1,495 1,528 1,553 1,555 1,565 1,576 1,584 1,585 1,601 1,615 1,619 1,657 1,670 1,695 1,714 1,737 1,746 1,769 1,770 1,773 1,782 1,783 1,785 1,788 1,797 1,807 1,812 1,816 1,825 1,834 1,879 1,880 1,883 1,909 1,913 1}
{4 1,11 1,14 1,16 1,24 1,31 1,32 1,37 1,39 1,41 1,43 1,51 1,53 1,55 1,56 1,57 1,61 1,77 1,82 1,83 1,88 1,92 1,108 1,114 1,115 1,116 1,117 1,123 1,128 1,142 1,160 1,161 1,168 1,171 1,176 1,189 1,191 1,192 1,195 1,204 1,210 1,223 1,228 1,239 1,241 1,243 1,246 1,253 1,264 1,267 1,269 1,270 1,271 1,277 1,284 1,300 1,303 1,313 1,317 1,321 1,324 1,325 1,329 1,330 1,336 1,338 1,353 1,357 1,358 1,361 1,365 1,369 1,373 1,388 1,389 1,391 1,402 1,409 1,417 1,422 1,433 1,434 1,447 1,448 1,449 1,453 1,460 1,463 1,464 1,468 1,470 1,478 1,482 1,489 1,491 1,495 1,497 1,508 1,515 1,518 1,521 1,528 1,532 1,536 1,538 1,541 1,545 1,548 1,552 1,553 1,567 1,603 1,605 1,618 1,625 1,627 1,630 1,638 1,643 1,648 1,651 1,655 1,657 1,672 1,677 1,678 1,679 1,680 1,691 1,695 1,700 1,707 1,716 1,732 1,763 1,764 1,766 1,779 1,782 1,783 1,784 1,785 1,789 1,790 1,791 1,792 1,793 1,796 1,802 1,804 1,807 1,813 1,831 1,832 1,833 1,834 1,835 1,846 1,849 1,852 1,854 1,859 1,865 1,868 1,869 1,870 1,872 1,877 1,878 1,883 1,886 1,890 1,894 1,896 1,904 1,909 1,911 1}
{4 1,6 1,10 1,13 1,21 1,24 1,29 1,31 1,33 1,34 1,37 1,38 1,39 1,42 1,43 1,45 1,50 1,51 1,52 1,54 1,56 1,59 1,61 1,65 1,68 1,77 1,79 1,84 1,85 1,104 1,106 1,107 1,113 1,114 1,115 1,116 1,117 1,119 1,121 1,126 1,150 1,151 1,156 1,163 1,166 1,174 1,177 1,178 1,179 1,184 1,187 1,191 1,194 1,204 1,207 1,214 1,222 1,223 1,228 1,234 1,238 1,241 1,242 1,245 1,247 1,255 1,263 1,265 1,268 1,271 1,274 1,277 1,284 1,286 1,290 1,293 1,299 1,308 1,312 1,315 1,316 1,328 1,329 1,334 1,342 1,346 1,356 1,357 1,369 1,371 1,372 1,374 1,375 1,377 1,380 1,382 1,384 1,388 1,391 1,392 1,397 1,400 1,409 1,411 1,412 1,417 1,418 1,420 1,429 1,430 1,431 1,440 1,451 1,452 1,456 1,460 1,463 1,466 1,468 1,475 1,480 1,485 1,486 1,488 1,490 1,491 1,492 1,500 1,501 1,502 1,504 1,509 1,510 1,511 1,512 1,515 1,516 1,518 1,525 1,528 1,531 1,536 1,538 1,539 1,541 1,547 1,548 1,549 1,553 1,554 1,555 1,556 1,558 1,559 1,566 1,567 1,570 1,580 1,582 1,587 1,589 1,592 1,597 1,601 1,602 1,605 1,607 1,608 1,609 1,612 1,613 1,619 1,620 1,628 1,633 1,641 1,642 1,653 1,655 1,656 1,657 1,659 1,661 1,663 1,664 1,672 1,683 1,689 1,694 1,697 1,701 1,703 1,704 1,707 1,710 1,711 1,712 1,722 1,725 1,726 1,735 1,741 1,742 1,743 1,748 1,749 1,752 1,754 1,761 1,771 1,772 1,776 1,779 1,782 1,783 1,784 1,785 1,796 1,802 1,805 1,807 1,813 1,823 1,830 1,831 1,834 1,835 1,836 1,841 1,845 1,849 1,851 1,853 1,854 1,855 1,866 1,873 1,875 1,876 1,883 1,890 1,893 1,895 1,903 1,909 1}
{5 1,39 1,43 1,55 1,72 1,82 1,146 1,195 1,228 1,268 1,277 1,305 1,306 1,332 1,344 1,361 1,365 1,369 1,423 1,428 1,439 1,456 1,481 1,520 1,536 1,552 1,657 1,667 1,676 1,714 1,782 1,783 1,807 1,834 1,844 1,883 1,895 1,909 1,913 1}
{4 1,11 1,70 1,82 1,115 1,207 1,277 1,302 1,361 1,363 1,528 1,679 1,681 1,717 1,783 1,796 1,807 1,883 1}
{4 1,10 1,14 1,24 1,29 1,35 1,37 1,39 1,41 1,43 1,50 1,51 1,53 1,56 1,60 1,61 1,68 1,77 1,79 1,82 1,84 1,85 1,87 1,92 1,93 1,97 1,99 1,100 1,106 1,114 1,115 1,123 1,127 1,132 1,138 1,147 1,162 1,177 1,179 1,183 1,192 1,194 1,196 1,204 1,211 1,213 1,220 1,223 1,225 1,231 1,238 1,243 1,251 1,252 1,253 1,254 1,256 1,263 1,267 1,268 1,271 1,272 1,273 1,274 1,277 1,279 1,286 1,292 1,299 1,300 1,302 1,304 1,308 1,310 1,312 1,314 1,315 1,324 1,328 1,329 1,331 1,334 1,337 1,355 1,356 1,357 1,361 1,365 1,366 1,369 1,371 1,372 1,377 1,383 1,386 1,387 1,388 1,391 1,397 1,402 1,404 1,409 1,410 1,411 1,417 1,420 1,421 1,425 1,431 1,441 1,442 1,450 1,454 1,456 1,457 1,461 1,463 1,467 1,468 1,471 1,472 1,473 1,480 1,485 1,486 1,496 1,500 1,501 1,502 1,505 1,512 1,515 1,516 1,518 1,519 1,521 1,523 1,528 1,529 1,531 1,536 1,537 1,538 1,539 1,541 1,542 1,543 1,544 1,548 1,558 1,559 1,561 1,567 1,570 1,582 1,599 1,603 1,605 1,607 1,608 1,612 1,618 1,625 1,637 1,638 1,657 1,658 1,664 1,672 1,673 1,681 1,688 1,689 1,690 1,694 1,695 1,697 1,698 1,700 1,701 1,703 1,709 1,714 1,716 1,717 1,725 1,730 1,732 1,737 1,743 1,749 1,752 1,754 1,761 1,762 1,763 1,764 1,771 1,772 1,777 1,779 1,782 1,783 1,784 1,785 1,786 1,789 1,790 1,791 1,793 1,796 1,798 1,801 1,802 1,804 1,807 1,817 1,822 1,823 1,828 1,830 1,831 1,832 1,833 1,834 1,835 1,837 1,839 1,840 1,846 1,847 1,849 1,852 1,859 1,863 1,865 1,867 1,869 1,872 1,873 1,875 1,879 1,880 1,883 1,884 1,886 1,890 1,891 1,895 1,903 1,904 1,909 1,911 1}
{4 1,224 1,317 1,361 1,369 1,437 1,453 1,679 1,783 1,880 1,909 1,913 1}
{4 1,24 1,37 1,39 1,43 1,55 1,56 1,61 1,77 1,82 1,123 1,168 1,228 1,251 1,277 1,320 1,327 1,358 1,361 1,369 1,388 1,447 1,493 1,500 1,528 1,536 1,604 1,670 1,714 1,741 1,745 1,783 1,807 1,837 1,854 1,867 1,869 1,909 1,911 1}
{4 1,6 1,9 1,13 1,14 1,24 1,26 1,34 1,37 1,39 1,40 1,43 1,48 1,50 1,51 1,52 1,56 1,60 1,61 1,63 1,65 1,82 1,85 1,92 1,93 1,100 1,107 1,114 1,115 1,116 1,121 1,123 1,131 1,132 1,149 1,152 1,158 1,160 1,163 1,171 1,175 1,177 1,178 1,182 1,184 1,192 1,194 1,204 1,214 1,223 1,225 1,228 1,234 1,244 1,255 1,260 1,263 1,277 1,286 1,287 1,289 1,290 1,291 1,299 1,300 1,303 1,311 1,313 1,315 1,324 1,328 1,329 1,336 1,342 1,355 1,356 1,357 1,361 1,362 1,365 1,366 1,367 1,369 1,372 1,376 1,377 1,380 1,388 1,392 1,400 1,412 1,416 1,417 1,420 1,421 1,424 1,429 1,436 1,442 1,452 1,453 1,454 1,457 1,465 1,485 1,491 1,493 1,500 1,501 1,502 1,505 1,506 1,510 1,512 1,518 1,521 1,525 1,527 1,528 1,531 1,535 1,536 1,538 1,539 1,541 1,542 1,544 1,545 1,548 1,552 1,555 1,559 1,560 1,566 1,582 1,594 1,598 1,602 1,607 1,609 1,637 1,652 1,657 1,663 1,664 1,665 1,672 1,685 1,686 1,691 1,695 1,700 1,701 1,703 1,704 1,714 1,723 1,725 1,726 1,730 1,736 1,738 1,739 1,746 1,756 1,761 1,762 1,763 1,769 1,771 1,772 1,774 1,782 1,783 1,784 1,785 1,789 1,790 1,796 1,802 1,806 1,807 1,831 1,835 1,836 1,845 1,847 1,848 1,851 1,855 1,879 1,883 1,900 1,903 1,904 1,909 1,911 1}
{4 1,12 1,14 1,16 1,39 1,43 1,52 1,55 1,56 1,61 1,71 1,72 1,82 1,85 1,86 1,91 1,94 1,114 1,115 1,135 1,181 1,188 1,193 1,195 1,196 1,218 1,220 1,228 1,250 1,268 1,271 1,272 1,277 1,286 1,294 1,308 1,318 1,328 1,329 1,332 1,345 1,348 1,361 1,365 1,369 1,378 1,388 1,389 1,396 1,410 1,417 1,422 1,423 1,433 1,439 1,441 1,443 1,444 1,453 1,479 1,482 1,491 1,495 1,497 1,505 1,509 1,518 1,519 1,520 1,528 1,536 1,552 1,562 1,567 1,594 1,600 1,601 1,619 1,657 1,666 1,691 1,694 1,695 1,696 1,703 1,709 1,763 1,764 1,765 1,782 1,783 1,786 1,788 1,790 1,795 1,796 1,807 1,834 1,837 1,859 1,864 1,865 1,867 1,870 1,875 1,879 1,883 1,895 1,903 1,913 1}
{4 1,14 1,36 1,124 1,146 1,207 1,277 1,302 1,357 1,391 1,441 1,528 1,541 1,657 1,764 1,782 1,783 1,804 1,807 1,911 1}
{4 1,6 1,8 1,12 1,13 1,14 1,15 1,18 1,24 1,25 1,34 1,37 1,38 1,39 1,43 1,50 1,51 1,53 1,55 1,56 1,57 1,58 1,60 1,61 1,64 1,65 1,69 1,74 1,79 1,82 1,83 1,84 1,86 1,92 1,95 1,98 1,103 1,111 1,114 1,115 1,117 1,123 1,128 1,132 1,133 1,140 1,149 1,150 1,152 1,156 1,160 1,163 1,171 1,172 1,176 1,177 1,178 1,179 1,180 1,181 1,184 1,185 1,204 1,207 1,210 1,213 1,214 1,222 1,223 1,225 1,228 1,234 1,241 1,242 1,259 1,263 1,270 1,271 1,274 1,277 1,279 1,286 1,288 1,293 1,296 1,299 1,300 1,303 1,304 1,305 1,308 1,311 1,313 1,315 1,316 1,325 1,327 1,329 1,333 1,337 1,339 1,341 1,354 1,357 1,360 1,361 1,363 1,365 1,366 1,367 1,369 1,374 1,376 1,377 1,379 1,380 1,385 1,386 1,388 1,389 1,394 1,395 1,396 1,400 1,401 1,402 1,404 1,409 1,412 1,413 1,417 1,420 1,428 1,433 1,435 1,436 1,438 1,440 1,441 1,449 1,451 1,452 1,453 1,454 1,455 1,456 1,463 1,464 1,465 1,477 1,485 1,486 1,490 1,491 1,492 1,496 1,498 1,500 1,501 1,502 1,505 1,506 1,510 1,512 1,516 1,518 1,520 1,521 1,524 1,525 1,528 1,535 1,536 1,539 1,541 1,542 1,543 1,544 1,546 1,548 1,550 1,552 1,553 1,555 1,565 1,566 1,567 1,573 1,580 1,581 1,582 1,587 1,588 1,592 1,593 1,594 1,597 1,602 1,610 1,611 1,612 1,615 1,617 1,619 1,620 1,625 1,627 1,628 1,630 1,637 1,638 1,642 1,646 1,647 1,652 1,654 1,663 1,665 1,671 1,672 1,679 1,683 1,686 1,694 1,695 1,697 1,704 1,708 1,709 1,712 1,713 1,714 1,722 1,723 1,725 1,726 1,730 1,732 1,736 1,738 1,739 1,740 1,741 1,742 1,745 1,751 1,753 1,756 1,762 1,763 1,766 1,771 1,773 1,774 1,779 1,782 1,783 1,784 1,785 1,788 1,789 1,790 1,796 1,798 1,800 1,801 1,804 1,807 1,811 1,812 1,814 1,815 1,821 1,826 1,827 1,828 1,830 1,832 1,834 1,835 1,836 1,840 1,841 1,843 1,846 1,848 1,850 1,851 1,852 1,854 1,858 1,866 1,867 1,870 1,872 1,877 1,879 1,883 1,895 1,900 1,904 1,907 1,909 1,911 1,912 1}
{4 1,9 1,16 1,39 1,51 1,61 1,70 1,82 1,85 1,94 1,111 1,123 1,195 1,222 1,277 1,300 1,305 1,307 1,332 1,344 1,357 1,361 1,368 1,369 1,377 1,388 1,404 1,413 1,417 1,441 1,444 1,463 1,482 1,488 1,509 1,520 1,536 1,539 1,552 1,553 1,574 1,587 1,617 1,630 1,666 1,679 1,707 1,733 1,783 1,790 1,796 1,807 1,823 1,834 1,837 1,846 1,860 1,869 1,870 1,879 1,883 1,885 1,888 1,903 1,909 1,913 1}
{4 1,6 1,7 1,37 1,39 1,51 1,55 1,56 1,61 1,68 1,82 1,86 1,89 1,93 1,114 1,152 1,197 1,204 1,212 1,215 1,228 1,231 1,237 1,334 1,342 1,361 1,365 1,369 1,379 1,388 1,391 1,441 1,451 1,484 1,496 1,497 1,505 1,528 1,539 1,648 1,660 1,716 1,762 1,765 1,783 1,796 1,798 1,816 1,836 1,849 1,867 1,869 1,909 1,911 1}
{4 1,6 1,8 1,9 1,10 1,11 1,13 1,24 1,25 1,29 1,34 1,37 1,39 1,40 1,43 1,50 1,51 1,54 1,55 1,56 1,60 1,61 1,65 1,69 1,77 1,82 1,85 1,86 1,87 1,89 1,93 1,98 1,107 1,115 1,117 1,121 1,123 1,132 1,133 1,137 1,149 1,150 1,151 1,152 1,156 1,158 1,162 1,163 1,171 1,178 1,179 1,184 1,185 1,194 1,199 1,200 1,207 1,210 1,214 1,220 1,223 1,225 1,228 1,229 1,232 1,234 1,242 1,244 1,250 1,255 1,260 1,263 1,271 1,273 1,277 1,280 1,286 1,287 1,291 1,299 1,300 1,311 1,315 1,316 1,327 1,328 1,329 1,331 1,337 1,355 1,357 1,358 1,365 1,367 1,369 1,372 1,377 1,382 1,384 1,385 1,386 1,388 1,391 1,392 1,393 1,399 1,400 1,412 1,416 1,417 1,420 1,424 1,433 1,436 1,440 1,442 1,454 1,455 1,463 1,468 1,470 1,479 1,491 1,493 1,495 1,496 1,500 1,501 1,506 1,509 1,510 1,511 1,512 1,516 1,518 1,519 1,521 1,523 1,525 1,528 1,529 1,535 1,536 1,538 1,539 1,541 1,543 1,546 1,548 1,550 1,552 1,553 1,555 1,559 1,587 1,588 1,592 1,593 1,594 1,595 1,598 1,610 1,612 1,614 1,620 1,621 1,623 1,628 1,632 1,633 1,637 1,638 1,639 1,641 1,646 1,650 1,654 1,655 1,656 1,657 1,663 1,664 1,668 1,671 1,673 1,677 1,685 1,688 1,689 1,691 1,695 1,697 1,700 1,703 1,707 1,709 1,710 1,712 1,714 1,717 1,723 1,725 1,729 1,732 1,751 1,761 1,762 1,763 1,764 1,767 1,771 1,774 1,779 1,782 1,783 1,784 1,788 1,789 1,790 1,796 1,798 1,804 1,805 1,807 1,815 1,823 1,824 1,827 1,829 1,831 1,832 1,834 1,835 1,836 1,838 1,839 1,840 1,841 1,842 1,855 1,860 1,872 1,875 1,879 1,883 1,899 1,909 1,911 1,912 1}
{4 1,5 1,6 1,13 1,14 1,24 1,37 1,39 1,43 1,45 1,50 1,51 1,52 1,55 1,56 1,61 1,63 1,72 1,82 1,85 1,94 1,101 1,103 1,106 1,114 1,115 1,117 1,123 1,153 1,182 1,186 1,196 1,204 1,228 1,243 1,260 1,268 1,277 1,286 1,292 1,300 1,303 1,305 1,321 1,329 1,332 1,336 1,354 1,358 1,361 1,365 1,369 1,380 1,386 1,388 1,391 1,397 1,399 1,402 1,404 1,407 1,411 1,417 1,427 1,435 1,453 1,454 1,460 1,468 1,470 1,478 1,488 1,496 1,497 1,500 1,505 1,509 1,515 1,518 1,521 1,523 1,528 1,536 1,539 1,541 1,551 1,552 1,553 1,559 1,574 1,583 1,587 1,592 1,609 1,634 1,637 1,642 1,643 1,657 1,661 1,676 1,678 1,683 1,685 1,693 1,695 1,709 1,714 1,718 1,722 1,733 1,739 1,742 1,749 1,751 1,763 1,764 1,779 1,782 1,783 1,791 1,793 1,796 1,800 1,802 1,807 1,815 1,820 1,830 1,831 1,834 1,846 1,854 1,856 1,859 1,863 1,865 1,867 1,869 1,875 1,879 1,883 1,889 1,890 1,891 1,895 1,903 1,909 1,910 1,911 1,913 1}
{4 1,13 1,43 1,56 1,61 1,82 1,85 1,98 1,114 1,115 1,123 1,161 1,163 1,168 1,177 1,199 1,210 1,222 1,260 1,277 1,281 1,291 1,305 1,307 1,308 1,324 1,328 1,329 1,336 1,354 1,361 1,365 1,369 1,388 1,390 1,391 1,402 1,417 1,441 1,455 1,457 1,467 1,470 1,489 1,497 1,505 1,518 1,520 1,528 1,536 1,538 1,545 1,587 1,603 1,616 1,630 1,660 1,679 1,687 1,693 1,741 1,751 1,763 1,765 1,781 1,782 1,783 1,792 1,793 1,796 1,804 1,807 1,823 1,849 1,852 1,859 1,867 1,883 1,895 1,909 1,911 1}
{4 1,6 1,8 1,9 1,10 1,13 1,24 1,29 1,32 1,34 1,35 1,36 1,37 1,38 1,39 1,40 1,41 1,43 1,50 1,51 1,56 1,57 1,60 1,61 1,65 1,68 1,70 1,74 1,75 1,77 1,79 1,82 1,83 1,84 1,85 1,91 1,93 1,97 1,98 1,99 1,103 1,107 1,114 1,115 1,116 1,117 1,120 1,123 1,125 1,132 1,133 1,150 1,152 1,153 1,156 1,157 1,163 1,166 1,175 1,178 1,179 1,180 1,182 1,192 1,204 1,207 1,210 1,218 1,222 1,225 1,228 1,234 1,242 1,243 1,251 1,260 1,263 1,265 1,267 1,268 1,270 1,272 1,273 1,274 1,277 1,279 1,280 1,281 1,286 1,287 1,289 1,299 1,300 1,303 1,304 1,311 1,314 1,315 1,327 1,328 1,329 1,332 1,336 1,339 1,343 1,344 1,355 1,357 1,358 1,359 1,361 1,362 1,365 1,366 1,367 1,368 1,369 1,371 1,372 1,376 1,377 1,380 1,382 1,383 1,384 1,385 1,388 1,391 1,394 1,400 1,401 1,407 1,411 1,412 1,413 1,416 1,417 1,420 1,429 1,435 1,436 1,442 1,450 1,453 1,454 1,455 1,456 1,457 1,461 1,462 1,463 1,465 1,468 1,485 1,486 1,490 1,491 1,493 1,500 1,501 1,502 1,504 1,506 1,509 1,510 1,512 1,515 1,516 1,518 1,519 1,521 1,523 1,525 1,528 1,531 1,536 1,537 1,538 1,539 1,541 1,542 1,543 1,545 1,546 1,548 1,549 1,553 1,560 1,561 1,566 1,567 1,568 1,573 1,581 1,582 1,587 1,590 1,591 1,593 1,601 1,604 1,607 1,608 1,609 1,610 1,611 1,612 1,614 1,615 1,617 1,619 1,620 1,625 1,627 1,632 1,635 1,637 1,640 1,641 1,642 1,645 1,657 1,661 1,663 1,664 1,665 1,671 1,672 1,673 1,677 1,678 1,679 1,683 1,688 1,689 1,690 1,691 1,695 1,697 1,700 1,703 1,710 1,711 1,714 1,723 1,725 1,729 1,730 1,734 1,737 1,738 1,740 1,751 1,752 1,754 1,755 1,761 1,762 1,763 1,771 1,772 1,774 1,779 1,782 1,783 1,784 1,785 1,786 1,788 1,789 1,790 1,793 1,796 1,798 1,802 1,804 1,805 1,807 1,814 1,825 1,834 1,835 1,836 1,838 1,839 1,840 1,843 1,845 1,848 1,849 1,850 1,851 1,858 1,863 1,867 1,869 1,872 1,873 1,874 1,875 1,876 1,879 1,883 1,887 1,889 1,891 1,895 1,900 1,904 1,909 1,911 1}
{4 1,32 1,43 1,55 1,76 1,82 1,93 1,94 1,169 1,181 1,209 1,223 1,228 1,243 1,294 1,328 1,349 1,361 1,369 1,388 1,390 1,391 1,404 1,417 1,428 1,528 1,536 1,540 1,541 1,558 1,585 1,657 1,667 1,695 1,770 1,782 1,783 1,823 1,861 1,895 1,913 1}
{4 1,6 1,24 1,29 1,37 1,39 1,41 1,51 1,56 1,61 1,82 1,85 1,86 1,91 1,114 1,122 1,123 1,128 1,182 1,195 1,201 1,205 1,231 1,242 1,244 1,245 1,253 1,259 1,277 1,286 1,300 1,326 1,329 1,331 1,357 1,361 1,365 1,369 1,376 1,388 1,391 1,409 1,428 1,433 1,441 1,445 1,449 1,456 1,489 1,497 1,506 1,518 1,528 1,529 1,531 1,536 1,548 1,563 1,564 1,569 1,588 1,591 1,596 1,615 1,657 1,659 1,677 1,679 1,681 1,694 1,695 1,703 1,709 1,745 1,764 1,766 1,776 1,783 1,789 1,792 1,794 1,796 1,799 1,804 1,807 1,824 1,829 1,854 1,862 1,863 1,867 1,870 1,873 1,883 1,888 1,894 1,895 1,909 1,911 1}
{0 1,4 1,5 1,6 1,10 1,13 1,14 1,21 1,24 1,25 1,29 1,30 1,31 1,33 1,34 1,37 1,38 1,39 1,40 1,41 1,44 1,45 1,50 1,51 1,55 1,56 1,60 1,61 1,65 1,68 1,70 1,72 1,75 1,78 1,82 1,83 1,88 1,91 1,92 1,95 1,99 1,102 1,104 1,105 1,107 1,114 1,115 1,116 1,117 1,119 1,120 1,121 1,123 1,131 1,132 1,133 1,135 1,137 1,140 1,154 1,156 1,160 1,163 1,164 1,166 1,167 1,168 1,174 1,177 1,178 1,179 1,181 1,182 1,184 1,186 1,187 1,190 1,191 1,192 1,194 1,208 1,210 1,214 1,218 1,220 1,222 1,225 1,226 1,228 1,231 1,233 1,234 1,236 1,238 1,239 1,242 1,243 1,245 1,247 1,250 1,251 1,255 1,256 1,263 1,267 1,268 1,270 1,271 1,273 1,274 1,277 1,278 1,280 1,281 1,284 1,286 1,287 1,288 1,289 1,291 1,292 1,293 1,299 1,300 1,302 1,303 1,306 1,308 1,311 1,312 1,313 1,316 1,318 1,320 1,323 1,324 1,328 1,329 1,332 1,341 1,342 1,343 1,352 1,356 1,357 1,361 1,362 1,365 1,369 1,370 1,371 1,372 1,376 1,377 1,380 1,384 1,386 1,388 1,390 1,391 1,392 1,393 1,394 1,396 1,398 1,399 1,402 1,403 1,405 1,408 1,409 1,410 1,411 1,412 1,414 1,417 1,423 1,425 1,427 1,429 1,433 1,434 1,436 1,437 1,441 1,442 1,445 1,447 1,449 1,452 1,453 1,454 1,455 1,457 1,459 1,461 1,463 1,465 1,466 1,467 1,468 1,469 1,477 1,478 1,480 1,485 1,486 1,487 1,488 1,490 1,491 1,493 1,495 1,496 1,498 1,500 1,501 1,504 1,506 1,509 1,512 1,515 1,516 1,518 1,520 1,521 1,523 1,524 1,525 1,528 1,532 1,535 1,536 1,538 1,539 1,541 1,542 1,544 1,545 1,547 1,548 1,549 1,552 1,553 1,554 1,555 1,556 1,558 1,561 1,565 1,566 1,567 1,568 1,569 1,571 1,573 1,580 1,581 1,582 1,591 1,596 1,597 1,598 1,600 1,605 1,607 1,608 1,609 1,610 1,613 1,618 1,619 1,620 1,621 1,623 1,628 1,632 1,633 1,637 1,639 1,642 1,649 1,650 1,652 1,653 1,657 1,659 1,660 1,661 1,663 1,664 1,665 1,670 1,672 1,675 1,677 1,678 1,679 1,683 1,685 1,687 1,688 1,690 1,691 1,695 1,697 1,699 1,701 1,704 1,707 1,709 1,710 1,711 1,712 1,714 1,722 1,723 1,725 1,726 1,729 1,730 1,734 1,736 1,738 1,739 1,741 1,743 1,746 1,747 1,748 1,749 1,750 1,751 1,752 1,761 1,762 1,763 1,764 1,771 1,772 1,774 1,776 1,779 1,782 1,783 1,784 1,785 1,786 1,788 1,789 1,790 1,795 1,796 1,797 1,798 1,799 1,802 1,804 1,805 1,806 1,807 1,810 1,816 1,818 1,828 1,831 1,834 1,835 1,837 1,838 1,840 1,843 1,845 1,846 1,847 1,849 1,851 1,852 1,854 1,855 1,858 1,859 1,860 1,862 1,863 1,866 1,867 1,869 1,870 1,872 1,874 1,879 1,883 1,885 1,887 1,890 1,891 1,892 1,895 1,898 1,900 1,904 1,907 1,908 1,909 1,911 1}
{4 1,5 1,11 1,14 1,15 1,16 1,17 1,24 1,25 1,26 1,31 1,35 1,37 1,38 1,39 1,41 1,43 1,51 1,53 1,54 1,56 1,61 1,66 1,67 1,68 1,70 1,72 1,73 1,74 1,75 1,78 1,82 1,83 1,85 1,86 1,87 1,89 1,91 1,92 1,94 1,95 1,101 1,102 1,105 1,106 1,109 1,114 1,115 1,119 1,121 1,122 1,123 1,130 1,132 1,136 1,141 1,145 1,148 1,150 1,168 1,169 1,170 1,173 1,174 1,176 1,180 1,187 1,188 1,195 1,196 1,204 1,206 1,210 1,211 1,212 1,213 1,223 1,224 1,228 1,243 1,244 1,256 1,259 1,260 1,267 1,268 1,271 1,272 1,277 1,280 1,281 1,282 1,286 1,294 1,295 1,296 1,300 1,302 1,303 1,305 1,307 1,308 1,309 1,310 1,314 1,317 1,321 1,322 1,326 1,329 1,330 1,332 1,336 1,342 1,344 1,345 1,347 1,348 1,349 1,350 1,352 1,353 1,354 1,356 1,357 1,358 1,361 1,365 1,369 1,372 1,386 1,388 1,391 1,396 1,397 1,398 1,399 1,402 1,404 1,409 1,412 1,417 1,421 1,422 1,423 1,426 1,428 1,433 1,434 1,435 1,437 1,439 1,441 1,442 1,443 1,448 1,449 1,450 1,453 1,454 1,457 1,459 1,460 1,462 1,464 1,468 1,469 1,470 1,476 1,478 1,479 1,491 1,493 1,495 1,496 1,498 1,502 1,504 1,509 1,512 1,515 1,518 1,521 1,528 1,529 1,535 1,536 1,537 1,538 1,539 1,545 1,548 1,551 1,552 1,553 1,554 1,559 1,561 1,568 1,569 1,571 1,572 1,574 1,575 1,576 1,577 1,579 1,580 1,583 1,586 1,588 1,597 1,599 1,604 1,618 1,619 1,625 1,629 1,630 1,631 1,634 1,636 1,640 1,647 1,652 1,654 1,655 1,656 1,657 1,659 1,661 1,666 1,675 1,676 1,677 1,679 1,681 1,685 1,686 1,691 1,694 1,695 1,703 1,708 1,709 1,714 1,731 1,734 1,739 1,745 1,746 1,750 1,754 1,763 1,765 1,769 1,770 1,781 1,782 1,783 1,784 1,785 1,786 1,788 1,789 1,790 1,791 1,793 1,795 1,796 1,797 1,798 1,799 1,801 1,802 1,804 1,805 1,807 1,810 1,811 1,812 1,813 1,814 1,815 1,816 1,819 1,822 1,823 1,833 1,834 1,835 1,846 1,849 1,851 1,852 1,854 1,855 1,858 1,859 1,860 1,861 1,863 1,864 1,865 1,867 1,869 1,872 1,873 1,875 1,876 1,877 1,879 1,880 1,881 1,882 1,883 1,884 1,887 1,891 1,895 1,896 1,901 1,903 1,908 1,909 1,911 1,913 1}
{4 1,28 1,32 1,39 1,51 1,56 1,77 1,82 1,91 1,108 1,175 1,178 1,231 1,234 1,241 1,277 1,281 1,286 1,360 1,361 1,365 1,369 1,383 1,388 1,409 1,428 1,430 1,444 1,470 1,528 1,536 1,587 1,609 1,709 1,723 1,729 1,741 1,783 1,784 1,796 1,801 1,807 1,823 1,836 1,840 1,859 1,863 1,876 1,879 1,895 1,909 1}
{4 1,6 1,9 1,12 1,14 1,24 1,29 1,34 1,37 1,39 1,42 1,43 1,50 1,51 1,54 1,56 1,57 1,59 1,61 1,63 1,65 1,77 1,80 1,82 1,85 1,86 1,87 1,93 1,97 1,103 1,106 1,114 1,115 1,116 1,119 1,120 1,123 1,128 1,132 1,137 1,152 1,164 1,165 1,179 1,183 1,196 1,198 1,207 1,208 1,210 1,213 1,220 1,222 1,231 1,235 1,263 1,270 1,273 1,274 1,277 1,278 1,280 1,281 1,286 1,288 1,293 1,296 1,300 1,308 1,314 1,315 1,321 1,328 1,329 1,332 1,343 1,345 1,356 1,357 1,361 1,365 1,369 1,376 1,377 1,388 1,389 1,391 1,400 1,402 1,414 1,416 1,417 1,420 1,427 1,429 1,435 1,437 1,438 1,439 1,442 1,453 1,454 1,466 1,470 1,485 1,486 1,491 1,493 1,495 1,500 1,501 1,505 1,509 1,510 1,512 1,515 1,518 1,519 1,528 1,536 1,538 1,541 1,542 1,543 1,544 1,548 1,553 1,559 1,574 1,582 1,587 1,593 1,594 1,595 1,607 1,610 1,616 1,620 1,622 1,625 1,630 1,633 1,641 1,642 1,652 1,657 1,660 1,663 1,665 1,671 1,677 1,679 1,688 1,697 1,699 1,707 1,709 1,713 1,714 1,717 1,725 1,729 1,731 1,739 1,743 1,754 1,762 1,763 1,779 1,782 1,783 1,786 1,788 1,789 1,790 1,796 1,798 1,801 1,802 1,807 1,817 1,823 1,833 1,834 1,835 1,836 1,837 1,841 1,843 1,847 1,849 1,850 1,854 1,858 1,859 1,865 1,866 1,869 1,872 1,874 1,877 1,883 1,884 1,895 1,909 1}
{4 1,6 1,15 1,22 1,30 1,37 1,38 1,39 1,46 1,56 1,61 1,67 1,82 1,86 1,95 1,104 1,114 1,180 1,195 1,207 1,244 1,271 1,277 1,286 1,296 1,302 1,310 1,325 1,328 1,332 1,345 1,361 1,365 1,369 1,388 1,391 1,394 1,444 1,458 1,470 1,491 1,508 1,509 1,518 1,528 1,536 1,539 1,541 1,584 1,595 1,601 1,615 1,644 1,657 1,659 1,667 1,678 1,714 1,715 1,779 1,782 1,783 1,786 1,788 1,796 1,800 1,807 1,844 1,854 1,859 1,867 1,875 1,879 1,883 1,885 1,913 1}
{4 1,28 1,39 1,43 1,51 1,56 1,77 1,82 1,91 1,108 1,120 1,160 1,175 1,178 1,222 1,231 1,267 1,277 1,281 1,286 1,360 1,365 1,369 1,371 1,382 1,386 1,388 1,430 1,444 1,455 1,478 1,489 1,512 1,518 1,528 1,536 1,541 1,546 1,547 1,551 1,587 1,609 1,611 1,614 1,625 1,673 1,729 1,741 1,783 1,784 1,796 1,801 1,807 1,823 1,824 1,836 1,840 1,858 1,859 1,863 1,876 1,879 1,883 1,909 1,911 1}
{4 1,6 1,11 1,12 1,14 1,15 1,21 1,22 1,24 1,25 1,28 1,29 1,30 1,33 1,35 1,37 1,38 1,39 1,41 1,43 1,45 1,47 1,49 1,50 1,51 1,52 1,54 1,56 1,60 1,61 1,63 1,65 1,70 1,82 1,84 1,85 1,86 1,87 1,89 1,91 1,93 1,94 1,101 1,106 1,114 1,115 1,116 1,119 1,123 1,128 1,132 1,134 1,138 1,146 1,148 1,152 1,155 1,160 1,164 1,168 1,170 1,177 1,178 1,179 1,183 1,192 1,195 1,199 1,204 1,211 1,213 1,218 1,220 1,222 1,224 1,225 1,228 1,231 1,233 1,236 1,238 1,239 1,245 1,248 1,252 1,255 1,258 1,260 1,263 1,264 1,268 1,270 1,271 1,272 1,273 1,274 1,277 1,280 1,281 1,282 1,286 1,291 1,292 1,299 1,303 1,305 1,307 1,308 1,313 1,314 1,316 1,321 1,328 1,329 1,333 1,339 1,342 1,346 1,352 1,357 1,358 1,360 1,361 1,363 1,365 1,366 1,367 1,369 1,372 1,377 1,383 1,386 1,388 1,391 1,392 1,393 1,394 1,395 1,400 1,401 1,402 1,408 1,410 1,411 1,412 1,414 1,417 1,418 1,419 1,420 1,421 1,425 1,426 1,431 1,436 1,438 1,448 1,451 1,452 1,454 1,456 1,457 1,458 1,463 1,464 1,465 1,466 1,468 1,478 1,481 1,484 1,485 1,486 1,490 1,491 1,493 1,495 1,498 1,500 1,501 1,502 1,508 1,509 1,512 1,515 1,517 1,518 1,519 1,521 1,523 1,527 1,528 1,529 1,536 1,537 1,538 1,539 1,541 1,542 1,543 1,544 1,545 1,548 1,551 1,552 1,553 1,560 1,561 1,580 1,581 1,582 1,588 1,589 1,591 1,593 1,594 1,597 1,599 1,601 1,602 1,603 1,604 1,607 1,610 1,612 1,613 1,614 1,615 1,619 1,620 1,621 1,623 1,625 1,627 1,628 1,633 1,634 1,635 1,639 1,642 1,643 1,645 1,646 1,652 1,653 1,657 1,658 1,660 1,663 1,664 1,665 1,672 1,673 1,674 1,677 1,678 1,679 1,680 1,683 1,685 1,686 1,687 1,690 1,695 1,696 1,699 1,701 1,702 1,703 1,707 1,708 1,709 1,710 1,711 1,712 1,714 1,717 1,718 1,723 1,725 1,726 1,730 1,738 1,739 1,740 1,742 1,743 1,746 1,748 1,749 1,751 1,753 1,754 1,755 1,756 1,761 1,762 1,764 1,765 1,766 1,767 1,769 1,771 1,772 1,774 1,777 1,778 1,779 1,781 1,782 1,783 1,784 1,785 1,786 1,788 1,789 1,790 1,791 1,793 1,795 1,796 1,797 1,799 1,800 1,801 1,802 1,804 1,806 1,807 1,813 1,821 1,823 1,824 1,825 1,828 1,831 1,833 1,834 1,835 1,837 1,840 1,844 1,845 1,847 1,848 1,849 1,851 1,854 1,857 1,858 1,863 1,864 1,865 1,867 1,869 1,870 1,871 1,872 1,873 1,874 1,879 1,883 1,884 1,885 1,890 1,892 1,893 1,895 1,903 1,904 1,907 1,909 1,911 1}
{4 1,39 1,168 1,206 1,357 1,365 1,388 1,470 1,511 1,536 1,587 1,709 1,775 1,783 1,788 1,807 1,913 1}
{4 1,14 1,39 1,43 1,51 1,64 1,82 1,84 1,87 1,114 1,115 1,128 1,129 1,181 1,228 1,332 1,361 1,369 1,388 1,409 1,424 1,496 1,518 1,528 1,541 1,563 1,657 1,783 1,788 1,796 1,802 1,807 1,854 1,875 1,883 1,911 1}
{4 1,14 1,37 1,39 1,50 1,51 1,68 1,112 1,115 1,154 1,178 1,179 1,222 1,271 1,274 1,277 1,286 1,293 1,320 1,321 1,329 1,361 1,365 1,369 1,374 1,391 1,393 1,408 1,417 1,420 1,441 1,468 1,497 1,498 1,500 1,515 1,518 1,528 1,539 1,541 1,542 1,543 1,550 1,582 1,657 1,661 1,686 1,697 1,725 1,746 1,751 1,783 1,802 1,806 1,807 1,832 1,835 1,847 1,872 1,883 1,907 1}
{4 1,24 1,37 1,45 1,61 1,101 1,181 1,207 1,222 1,228 1,235 1,277 1,329 1,361 1,388 1,391 1,393 1,442 1,455 1,470 1,528 1,536 1,538 1,539 1,552 1,657 1,782 1,783 1,796 1,804 1,913 1}
{4 1,37 1,51 1,56 1,61 1,82 1,84 1,114 1,115 1,121 1,123 1,152 1,181 1,204 1,210 1,223 1,228 1,232 1,235 1,251 1,267 1,329 1,357 1,361 1,369 1,388 1,391 1,410 1,424 1,470 1,496 1,497 1,515 1,517 1,518 1,528 1,536 1,564 1,599 1,625 1,647 1,654 1,657 1,704 1,713 1,722 1,763 1,775 1,782 1,783 1,788 1,796 1,807 1,852 1,873 1,875 1,909 1}
{4 1,24 1,37 1,39 1,50 1,56 1,60 1,68 1,71 1,72 1,82 1,94 1,101 1,104 1,179 1,204 1,214 1,224 1,225 1,227 1,245 1,258 1,263 1,270 1,280 1,286 1,293 1,301 1,308 1,328 1,338 1,345 1,361 1,369 1,388 1,399 1,401 1,402 1,403 1,404 1,417 1,453 1,454 1,457 1,458 1,460 1,463 1,466 1,470 1,488 1,493 1,497 1,498 1,500 1,501 1,503 1,504 1,505 1,508 1,512 1,515 1,518 1,519 1,521 1,525 1,528 1,533 1,536 1,539 1,545 1,548 1,551 1,552 1,570 1,582 1,593 1,619 1,627 1,630 1,633 1,635 1,646 1,647 1,657 1,663 1,664 1,671 1,678 1,712 1,725 1,775 1,783 1,790 1,796 1,806 1,807 1,812 1,828 1,834 1,835 1,838 1,845 1,849 1,908 1,911 1}
{4 1,15 1,24 1,37 1,49 1,55 1,61 1,114 1,145 1,152 1,182 1,206 1,277 1,294 1,353 1,369 1,388 1,418 1,478 1,509 1,528 1,553 1,630 1,634 1,657 1,676 1,703 1,704 1,724 1,763 1,783 1,788 1,854 1,856 1,874 1,877 1,882 1,893 1,908 1,913 1}
{4 1,24 1,43 1,55 1,61 1,82 1,123 1,168 1,228 1,277 1,327 1,358 1,361 1,369 1,528 1,604 1,670 1,714 1,783 1,807 1,837 1,854 1,867 1,869 1}
{4 1,6 1,7 1,10 1,14 1,21 1,22 1,29 1,34 1,37 1,39 1,40 1,41 1,42 1,43 1,50 1,51 1,54 1,56 1,57 1,61 1,63 1,65 1,68 1,73 1,75 1,79 1,82 1,89 1,107 1,114 1,115 1,116 1,117 1,119 1,123 1,125 1,132 1,133 1,149 1,150 1,151 1,156 1,158 1,161 1,164 1,170 1,171 1,177 1,178 1,179 1,182 1,183 1,184 1,185 1,187 1,189 1,193 1,194 1,199 1,204 1,207 1,222 1,225 1,228 1,234 1,241 1,242 1,260 1,263 1,265 1,268 1,271 1,273 1,277 1,278 1,286 1,287 1,290 1,293 1,299 1,300 1,305 1,311 1,312 1,314 1,321 1,328 1,329 1,332 1,339 1,342 1,356 1,357 1,361 1,365 1,366 1,367 1,369 1,376 1,377 1,380 1,388 1,391 1,392 1,400 1,409 1,412 1,414 1,416 1,417 1,420 1,422 1,425 1,436 1,441 1,449 1,455 1,462 1,463 1,465 1,472 1,480 1,485 1,486 1,488 1,493 1,496 1,500 1,501 1,502 1,504 1,509 1,510 1,512 1,518 1,519 1,525 1,528 1,531 1,533 1,536 1,538 1,541 1,544 1,548 1,552 1,555 1,559 1,567 1,568 1,580 1,582 1,592 1,597 1,602 1,607 1,608 1,610 1,612 1,617 1,637 1,641 1,642 1,652 1,653 1,655 1,656 1,657 1,660 1,664 1,665 1,670 1,673 1,677 1,679 1,686 1,688 1,695 1,697 1,701 1,711 1,713 1,714 1,725 1,730 1,734 1,742 1,752 1,771 1,772 1,782 1,783 1,784 1,785 1,789 1,790 1,792 1,796 1,802 1,807 1,817 1,825 1,828 1,830 1,835 1,837 1,843 1,850 1,855 1,860 1,865 1,870 1,872 1,874 1,879 1,883 1,885 1,890 1,900 1,909 1,911 1}
{4 1,6 1,26 1,37 1,38 1,39 1,51 1,54 1,56 1,61 1,62 1,66 1,82 1,88 1,114 1,115 1,196 1,210 1,231 1,277 1,297 1,310 1,329 1,332 1,345 1,361 1,369 1,380 1,385 1,388 1,391 1,402 1,422 1,428 1,442 1,453 1,454 1,457 1,477 1,478 1,491 1,518 1,521 1,524 1,528 1,529 1,536 1,537 1,538 1,553 1,585 1,622 1,627 1,657 1,755 1,763 1,772 1,782 1,783 1,786 1,789 1,793 1,796 1,807 1,809 1,842 1,854 1,867 1,872 1,895 1,900 1,903 1,913 1}
{4 1,24 1,31 1,39 1,43 1,51 1,55 1,56 1,61 1,82 1,123 1,138 1,152 1,168 1,213 1,222 1,228 1,277 1,286 1,327 1,336 1,358 1,361 1,369 1,388 1,439 1,455 1,483 1,497 1,517 1,519 1,528 1,538 1,539 1,540 1,541 1,551 1,569 1,587 1,604 1,670 1,714 1,782 1,783 1,788 1,789 1,807 1,821 1,835 1,837 1,854 1,867 1,869 1}
{4 1,6 1,7 1,14 1,26 1,31 1,37 1,38 1,39 1,50 1,51 1,52 1,54 1,56 1,60 1,61 1,63 1,64 1,68 1,69 1,77 1,82 1,85 1,106 1,112 1,114 1,115 1,123 1,138 1,148 1,163 1,175 1,177 1,178 1,179 1,192 1,193 1,203 1,213 1,225 1,235 1,236 1,238 1,239 1,242 1,245 1,255 1,260 1,263 1,264 1,268 1,271 1,277 1,279 1,284 1,286 1,291 1,305 1,311 1,313 1,322 1,328 1,333 1,342 1,357 1,360 1,361 1,365 1,367 1,369 1,372 1,377 1,379 1,384 1,386 1,388 1,391 1,392 1,393 1,395 1,400 1,401 1,405 1,413 1,414 1,416 1,417 1,418 1,420 1,421 1,429 1,433 1,441 1,451 1,452 1,453 1,454 1,456 1,457 1,463 1,465 1,468 1,475 1,485 1,486 1,489 1,490 1,491 1,493 1,500 1,501 1,502 1,504 1,509 1,512 1,515 1,518 1,519 1,525 1,527 1,528 1,536 1,538 1,541 1,542 1,543 1,544 1,548 1,551 1,552 1,553 1,555 1,559 1,581 1,582 1,591 1,594 1,598 1,602 1,607 1,609 1,611 1,620 1,642 1,644 1,645 1,647 1,652 1,657 1,660 1,663 1,664 1,665 1,672 1,673 1,679 1,683 1,685 1,691 1,694 1,695 1,697 1,703 1,712 1,723 1,725 1,726 1,733 1,738 1,739 1,748 1,749 1,752 1,753 1,756 1,761 1,762 1,769 1,772 1,774 1,776 1,779 1,782 1,783 1,788 1,789 1,795 1,796 1,801 1,802 1,806 1,807 1,816 1,825 1,833 1,834 1,835 1,836 1,840 1,843 1,845 1,848 1,864 1,870 1,872 1,873 1,875 1,879 1,883 1,893 1,895 1,900 1,903 1,904 1}
{4 1,30 1,32 1,37 1,48 1,55 1,56 1,82 1,154 1,163 1,179 1,182 1,195 1,219 1,228 1,254 1,286 1,291 1,297 1,305 1,307 1,332 1,345 1,361 1,369 1,385 1,388 1,426 1,453 1,468 1,510 1,515 1,528 1,536 1,547 1,594 1,641 1,657 1,699 1,735 1,749 1,751 1,782 1,783 1,787 1,807 1,809 1,831 1,833 1,875 1,879 1,883 1,886 1,895 1,913 1}
{1 1,4 1,6 1,14 1,36 1,42 1,54 1,55 1,56 1,82 1,114 1,124 1,131 1,146 1,157 1,177 1,182 1,201 1,204 1,207 1,209 1,228 1,243 1,271 1,277 1,299 1,300 1,302 1,342 1,357 1,361 1,369 1,388 1,391 1,411 1,441 1,449 1,451 1,474 1,491 1,495 1,508 1,516 1,518 1,528 1,541 1,570 1,616 1,623 1,648 1,657 1,677 1,700 1,707 1,714 1,715 1,716 1,764 1,782 1,783 1,804 1,805 1,807 1,831 1,875 1,884 1,904 1,909 1,911 1}
{0 1,4 1,6 1,12 1,14 1,24 1,29 1,30 1,34 1,37 1,39 1,50 1,51 1,54 1,55 1,56 1,60 1,61 1,65 1,70 1,77 1,79 1,82 1,83 1,85 1,103 1,104 1,107 1,114 1,115 1,116 1,117 1,122 1,123 1,129 1,132 1,140 1,150 1,155 1,156 1,157 1,160 1,163 1,177 1,178 1,179 1,191 1,193 1,204 1,207 1,222 1,225 1,236 1,244 1,250 1,253 1,258 1,263 1,268 1,270 1,271 1,272 1,273 1,274 1,277 1,278 1,280 1,286 1,293 1,299 1,304 1,305 1,308 1,328 1,329 1,346 1,352 1,361 1,362 1,365 1,366 1,367 1,369 1,370 1,371 1,372 1,377 1,386 1,388 1,391 1,392 1,393 1,399 1,400 1,402 1,403 1,408 1,409 1,412 1,414 1,416 1,417 1,427 1,430 1,436 1,439 1,441 1,442 1,452 1,453 1,463 1,468 1,478 1,488 1,491 1,495 1,498 1,500 1,501 1,505 1,506 1,509 1,512 1,518 1,519 1,521 1,523 1,525 1,527 1,528 1,531 1,536 1,538 1,539 1,541 1,542 1,543 1,545 1,548 1,552 1,555 1,558 1,559 1,566 1,569 1,571 1,581 1,582 1,588 1,596 1,598 1,601 1,602 1,603 1,607 1,608 1,610 1,612 1,614 1,619 1,627 1,639 1,642 1,647 1,657 1,659 1,663 1,669 1,671 1,672 1,673 1,678 1,679 1,683 1,686 1,688 1,690 1,691 1,707 1,711 1,712 1,714 1,722 1,723 1,725 1,726 1,730 1,738 1,748 1,751 1,753 1,761 1,762 1,763 1,771 1,775 1,777 1,779 1,782 1,783 1,785 1,786 1,789 1,790 1,796 1,801 1,802 1,807 1,820 1,823 1,825 1,828 1,829 1,831 1,834 1,835 1,836 1,837 1,838 1,840 1,843 1,849 1,850 1,851 1,852 1,854 1,858 1,860 1,865 1,867 1,870 1,872 1,879 1,883 1,884 1,890 1,891 1,892 1,893 1,895 1,903 1,904 1,908 1,909 1,911 1}
{4 1,14 1,39 1,45 1,55 1,56 1,76 1,110 1,123 1,178 1,207 1,220 1,226 1,228 1,245 1,295 1,300 1,361 1,369 1,388 1,409 1,433 1,436 1,438 1,463 1,464 1,518 1,528 1,536 1,613 1,752 1,782 1,783 1,796 1,807 1,854 1,860 1,870 1,913 1}
{1 1,4 1,6 1,37 1,39 1,51 1,56 1,61 1,82 1,115 1,121 1,123 1,152 1,153 1,181 1,204 1,210 1,223 1,228 1,232 1,235 1,236 1,251 1,267 1,299 1,313 1,329 1,332 1,357 1,361 1,369 1,388 1,391 1,409 1,410 1,470 1,474 1,497 1,515 1,517 1,518 1,521 1,528 1,533 1,536 1,539 1,564 1,599 1,625 1,647 1,654 1,657 1,704 1,713 1,722 1,763 1,775 1,782 1,783 1,786 1,788 1,789 1,807 1,831 1,852 1,873 1,875 1,883 1,909 1}
{4 1,12 1,21 1,26 1,29 1,31 1,33 1,34 1,37 1,38 1,39 1,50 1,51 1,54 1,56 1,58 1,59 1,60 1,61 1,63 1,64 1,67 1,77 1,82 1,88 1,90 1,99 1,115 1,116 1,121 1,123 1,132 1,133 1,155 1,156 1,160 1,164 1,177 1,178 1,183 1,184 1,185 1,187 1,189 1,194 1,199 1,210 1,222 1,225 1,228 1,231 1,235 1,236 1,241 1,244 1,245 1,254 1,255 1,263 1,264 1,268 1,270 1,271 1,273 1,277 1,278 1,283 1,284 1,286 1,287 1,289 1,291 1,293 1,299 1,300 1,306 1,313 1,322 1,333 1,337 1,342 1,359 1,360 1,361 1,365 1,366 1,369 1,380 1,384 1,388 1,391 1,393 1,395 1,400 1,402 1,403 1,405 1,409 1,412 1,413 1,414 1,416 1,417 1,420 1,428 1,431 1,435 1,436 1,437 1,439 1,440 1,441 1,444 1,451 1,452 1,453 1,460 1,461 1,464 1,465 1,470 1,471 1,483 1,485 1,491 1,493 1,497 1,500 1,501 1,502 1,504 1,509 1,512 1,515 1,518 1,519 1,521 1,523 1,526 1,527 1,528 1,529 1,531 1,536 1,537 1,538 1,539 1,541 1,542 1,543 1,544 1,548 1,552 1,553 1,554 1,582 1,587 1,588 1,593 1,594 1,597 1,599 1,607 1,610 1,614 1,620 1,625 1,626 1,627 1,629 1,635 1,637 1,642 1,652 1,655 1,657 1,660 1,662 1,663 1,666 1,671 1,672 1,682 1,685 1,688 1,697 1,699 1,703 1,704 1,707 1,710 1,712 1,713 1,714 1,717 1,718 1,720 1,722 1,725 1,729 1,731 1,734 1,736 1,737 1,738 1,741 1,742 1,743 1,748 1,754 1,761 1,763 1,772 1,774 1,777 1,779 1,781 1,782 1,783 1,788 1,789 1,790 1,791 1,796 1,801 1,804 1,807 1,816 1,825 1,830 1,832 1,833 1,836 1,847 1,848 1,849 1,851 1,854 1,860 1,867 1,872 1,874 1,875 1,879 1,889 1,900 1,909 1,910 1,911 1}
{4 1,6 1,7 1,14 1,24 1,36 1,37 1,39 1,41 1,43 1,46 1,51 1,55 1,56 1,61 1,76 1,82 1,85 1,87 1,93 1,109 1,114 1,115 1,116 1,126 1,134 1,135 1,149 1,196 1,203 1,204 1,228 1,244 1,245 1,251 1,259 1,268 1,277 1,286 1,294 1,302 1,307 1,313 1,319 1,321 1,328 1,329 1,338 1,347 1,348 1,361 1,365 1,369 1,388 1,402 1,409 1,423 1,426 1,429 1,433 1,442 1,445 1,449 1,453 1,470 1,477 1,490 1,493 1,497 1,506 1,510 1,515 1,518 1,521 1,528 1,530 1,533 1,536 1,538 1,539 1,548 1,552 1,553 1,555 1,559 1,567 1,571 1,572 1,576 1,577 1,579 1,588 1,590 1,615 1,625 1,629 1,630 1,643 1,650 1,655 1,656 1,657 1,675 1,676 1,687 1,698 1,709 1,733 1,735 1,763 1,768 1,769 1,770 1,779 1,782 1,783 1,784 1,786 1,788 1,789 1,790 1,792 1,796 1,800 1,802 1,807 1,814 1,817 1,834 1,860 1,863 1,865 1,867 1,872 1,875 1,879 1,883 1,903 1,904 1,909 1,913 1}
{4 1,36 1,39 1,43 1,46 1,51 1,56 1,82 1,85 1,97 1,114 1,115 1,129 1,134 1,137 1,146 1,177 1,182 1,183 1,195 1,215 1,228 1,231 1,243 1,277 1,299 1,304 1,328 1,329 1,358 1,361 1,365 1,369 1,387 1,388 1,389 1,391 1,392 1,402 1,403 1,404 1,411 1,432 1,433 1,441 1,468 1,474 1,482 1,487 1,497 1,505 1,518 1,528 1,529 1,539 1,551 1,553 1,559 1,578 1,579 1,588 1,596 1,604 1,623 1,630 1,648 1,667 1,695 1,705 1,714 1,737 1,750 1,761 1,763 1,765 1,766 1,776 1,782 1,783 1,798 1,799 1,802 1,804 1,805 1,807 1,809 1,829 1,831 1,838 1,854 1,859 1,863 1,865 1,867 1,869 1,870 1,883 1,895 1,906 1}
{4 1,11 1,24 1,29 1,39 1,51 1,55 1,61 1,80 1,83 1,85 1,94 1,97 1,113 1,114 1,115 1,128 1,153 1,156 1,172 1,177 1,209 1,210 1,228 1,267 1,277 1,286 1,300 1,305 1,312 1,321 1,328 1,329 1,337 1,357 1,365 1,369 1,388 1,391 1,392 1,402 1,420 1,424 1,425 1,437 1,454 1,460 1,465 1,505 1,510 1,515 1,528 1,536 1,538 1,541 1,542 1,552 1,603 1,604 1,615 1,618 1,623 1,625 1,657 1,663 1,704 1,709 1,714 1,725 1,732 1,740 1,763 1,782 1,783 1,784 1,785 1,788 1,790 1,806 1,807 1,815 1,825 1,826 1,835 1,837 1,852 1,854 1,858 1,883 1,890 1,898 1,903 1,912 1}
{4 1,39 1,82 1,114 1,203 1,277 1,361 1,369 1,470 1,502 1,538 1,571 1,783 1,835 1,879 1,911 1,913 1}
{4 1,6 1,18 1,39 1,43 1,45 1,61 1,205 1,207 1,253 1,277 1,285 1,313 1,321 1,328 1,338 1,369 1,388 1,391 1,393 1,409 1,431 1,433 1,445 1,459 1,483 1,489 1,513 1,517 1,528 1,536 1,540 1,553 1,615 1,623 1,657 1,669 1,693 1,709 1,740 1,782 1,783 1,796 1,883 1}
{4 1,6 1,9 1,10 1,12 1,13 1,14 1,17 1,24 1,31 1,32 1,39 1,43 1,45 1,51 1,52 1,56 1,61 1,65 1,67 1,70 1,79 1,82 1,95 1,99 1,101 1,102 1,107 1,113 1,115 1,120 1,123 1,126 1,132 1,137 1,138 1,143 1,145 1,152 1,161 1,163 1,181 1,182 1,183 1,196 1,210 1,214 1,222 1,223 1,224 1,233 1,235 1,247 1,251 1,268 1,275 1,277 1,281 1,284 1,286 1,289 1,295 1,308 1,309 1,313 1,315 1,329 1,334 1,337 1,339 1,342 1,345 1,361 1,365 1,369 1,371 1,372 1,377 1,379 1,380 1,385 1,388 1,394 1,396 1,399 1,405 1,409 1,412 1,416 1,418 1,432 1,433 1,436 1,438 1,440 1,442 1,455 1,456 1,457 1,459 1,468 1,469 1,470 1,472 1,477 1,481 1,491 1,498 1,502 1,509 1,513 1,515 1,516 1,525 1,528 1,536 1,538 1,539 1,541 1,545 1,547 1,548 1,552 1,553 1,555 1,567 1,587 1,589 1,591 1,607 1,611 1,612 1,617 1,622 1,639 1,642 1,646 1,647 1,656 1,657 1,670 1,672 1,677 1,679 1,688 1,690 1,716 1,725 1,728 1,729 1,739 1,763 1,779 1,783 1,784 1,785 1,788 1,789 1,796 1,797 1,798 1,801 1,802 1,807 1,816 1,817 1,823 1,825 1,828 1,842 1,853 1,867 1,870 1,872 1,875 1,879 1,881 1,883 1,884 1,890 1,895 1,903 1,904 1,909 1,911 1}
{39 1,45 1,49 1,61 1,82 1,102 1,235 1,328 1,329 1,332 1,344 1,353 1,361 1,365 1,369 1,439 1,528 1,656 1,657 1,695 1,782 1,783 1,790 1,796 1,875 1,897 1,913 1}
{4 1,29 1,37 1,39 1,82 1,123 1,241 1,265 1,325 1,361 1,365 1,385 1,391 1,453 1,470 1,475 1,477 1,528 1,541 1,573 1,608 1,620 1,657 1,782 1,783 1,807 1,825 1,831 1,834 1}
{4 1,9 1,11 1,24 1,39 1,52 1,55 1,56 1,61 1,82 1,86 1,87 1,112 1,114 1,115 1,152 1,169 1,184 1,193 1,200 1,228 1,243 1,271 1,273 1,307 1,308 1,319 1,321 1,322 1,324 1,337 1,361 1,365 1,369 1,388 1,391 1,418 1,425 1,429 1,460 1,469 1,493 1,501 1,506 1,515 1,518 1,528 1,536 1,538 1,541 1,548 1,552 1,562 1,616 1,657 1,677 1,680 1,732 1,755 1,783 1,791 1,796 1,800 1,807 1,815 1,825 1,833 1,834 1,854 1,863 1,864 1,867 1,869 1,872 1,890 1,898 1,912 1}
{4 1,31 1,39 1,61 1,102 1,114 1,204 1,241 1,277 1,292 1,308 1,332 1,361 1,369 1,445 1,478 1,518 1,541 1,561 1,657 1,770 1,783 1,800 1,807 1,867 1,913 1}
{55 1,56 1,82 1,152 1,157 1,162 1,171 1,221 1,228 1,327 1,339 1,369 1,388 1,391 1,433 1,456 1,468 1,515 1,528 1,716 1,727 1,745 1,782 1,783 1,789 1,807 1,815 1,824 1,838 1,877 1,883 1}
{4 1,37 1,61 1,82 1,104 1,114 1,116 1,123 1,177 1,267 1,271 1,286 1,329 1,339 1,361 1,365 1,369 1,370 1,388 1,456 1,470 1,528 1,541 1,542 1,548 1,588 1,657 1,716 1,761 1,762 1,781 1,782 1,783 1,804 1,807 1,820 1,838 1,872 1,909 1}
{4 1,6 1,15 1,37 1,39 1,55 1,85 1,86 1,101 1,114 1,116 1,169 1,180 1,203 1,204 1,228 1,232 1,239 1,250 1,264 1,300 1,308 1,313 1,329 1,357 1,361 1,369 1,388 1,391 1,396 1,409 1,433 1,453 1,470 1,491 1,493 1,509 1,510 1,512 1,518 1,525 1,528 1,541 1,552 1,625 1,630 1,650 1,657 1,667 1,709 1,716 1,735 1,781 1,783 1,793 1,796 1,804 1,807 1,836 1,846 1,859 1,861 1,880 1,882 1,894 1,909 1,913 1}
{4 1,11 1,39 1,51 1,55 1,56 1,70 1,82 1,115 1,135 1,149 1,152 1,204 1,207 1,210 1,221 1,228 1,277 1,302 1,327 1,361 1,363 1,369 1,456 1,515 1,518 1,528 1,539 1,625 1,657 1,679 1,681 1,717 1,727 1,745 1,752 1,760 1,763 1,782 1,783 1,790 1,796 1,807 1,883 1,909 1}
{4 1,6 1,8 1,31 1,36 1,39 1,43 1,51 1,54 1,55 1,61 1,82 1,83 1,87 1,96 1,112 1,114 1,115 1,123 1,138 1,153 1,171 1,175 1,194 1,204 1,235 1,243 1,250 1,258 1,277 1,286 1,314 1,361 1,369 1,383 1,388 1,389 1,391 1,395 1,433 1,434 1,435 1,441 1,478 1,481 1,491 1,503 1,509 1,518 1,521 1,528 1,536 1,541 1,548 1,556 1,565 1,609 1,629 1,631 1,647 1,651 1,657 1,658 1,672 1,709 1,746 1,763 1,772 1,776 1,779 1,782 1,783 1,788 1,790 1,796 1,805 1,807 1,812 1,816 1,828 1,840 1,849 1,857 1,858 1,867 1,869 1,870 1,875 1,877 1,879 1,883 1,890 1,895 1}
{4 1,6 1,11 1,14 1,15 1,17 1,24 1,27 1,29 1,31 1,32 1,35 1,37 1,39 1,43 1,44 1,45 1,51 1,53 1,55 1,56 1,61 1,62 1,66 1,76 1,82 1,83 1,85 1,87 1,88 1,91 1,92 1,94 1,97 1,101 1,106 1,109 1,113 1,114 1,115 1,116 1,120 1,123 1,136 1,152 1,153 1,157 1,161 1,168 1,169 1,170 1,174 1,177 1,181 1,187 1,188 1,199 1,204 1,207 1,210 1,211 1,213 1,228 1,233 1,239 1,240 1,241 1,243 1,244 1,248 1,252 1,260 1,264 1,266 1,277 1,280 1,286 1,294 1,300 1,303 1,305 1,308 1,321 1,328 1,329 1,332 1,339 1,344 1,345 1,347 1,357 1,361 1,365 1,369 1,376 1,382 1,388 1,391 1,402 1,407 1,409 1,410 1,416 1,425 1,427 1,428 1,433 1,439 1,446 1,449 1,453 1,454 1,457 1,458 1,459 1,464 1,468 1,470 1,471 1,491 1,493 1,495 1,496 1,497 1,507 1,509 1,512 1,515 1,517 1,518 1,521 1,528 1,532 1,535 1,536 1,538 1,539 1,540 1,541 1,548 1,549 1,551 1,552 1,553 1,561 1,567 1,569 1,576 1,578 1,583 1,585 1,586 1,587 1,600 1,609 1,623 1,625 1,627 1,629 1,630 1,631 1,647 1,649 1,655 1,657 1,660 1,667 1,679 1,681 1,684 1,691 1,695 1,701 1,709 1,713 1,714 1,715 1,719 1,733 1,739 1,740 1,746 1,748 1,752 1,755 1,763 1,764 1,769 1,775 1,779 1,782 1,783 1,784 1,785 1,786 1,788 1,789 1,790 1,793 1,796 1,799 1,801 1,807 1,812 1,817 1,828 1,834 1,837 1,846 1,849 1,854 1,858 1,859 1,863 1,865 1,867 1,869 1,871 1,872 1,873 1,875 1,877 1,879 1,880 1,881 1,882 1,883 1,885 1,889 1,894 1,895 1,898 1,903 1,904 1,909 1,910 1,911 1,913 1}
{4 1,6 1,18 1,24 1,29 1,31 1,37 1,39 1,43 1,45 1,51 1,55 1,56 1,61 1,70 1,80 1,82 1,106 1,114 1,115 1,126 1,140 1,152 1,168 1,170 1,197 1,205 1,207 1,208 1,210 1,243 1,253 1,260 1,267 1,277 1,285 1,286 1,300 1,301 1,306 1,308 1,313 1,321 1,328 1,329 1,330 1,338 1,361 1,365 1,369 1,376 1,388 1,389 1,391 1,396 1,402 1,404 1,409 1,424 1,431 1,433 1,439 1,445 1,447 1,459 1,468 1,470 1,471 1,474 1,475 1,483 1,489 1,495 1,497 1,513 1,517 1,518 1,521 1,528 1,536 1,540 1,541 1,552 1,553 1,554 1,601 1,603 1,615 1,618 1,623 1,626 1,627 1,630 1,657 1,659 1,669 1,679 1,693 1,705 1,709 1,714 1,717 1,719 1,740 1,763 1,764 1,765 1,782 1,783 1,788 1,790 1,796 1,801 1,807 1,812 1,837 1,841 1,854 1,867 1,883 1,890 1,895 1,904 1,906 1,909 1}
{4 1,6 1,29 1,31 1,39 1,51 1,56 1,99 1,114 1,115 1,120 1,121 1,228 1,251 1,270 1,277 1,286 1,304 1,339 1,358 1,362 1,369 1,386 1,388 1,391 1,402 1,411 1,480 1,488 1,491 1,496 1,501 1,520 1,521 1,528 1,536 1,552 1,615 1,616 1,617 1,638 1,652 1,665 1,679 1,749 1,761 1,782 1,783 1,792 1,807 1,811 1,837 1,843 1,863 1,869 1,874 1,875 1,877 1,879 1,909 1}
{24 1,37 1,39 1,51 1,82 1,101 1,116 1,170 1,181 1,222 1,226 1,228 1,229 1,271 1,277 1,339 1,361 1,365 1,369 1,388 1,391 1,393 1,423 1,439 1,455 1,470 1,502 1,528 1,536 1,538 1,539 1,552 1,571 1,572 1,650 1,657 1,783 1,793 1,796 1,804 1,807 1,820 1,913 1}
{4 1,5 1,6 1,43 1,51 1,87 1,88 1,92 1,140 1,182 1,197 1,201 1,242 1,243 1,277 1,285 1,303 1,307 1,308 1,328 1,332 1,344 1,345 1,361 1,365 1,369 1,377 1,388 1,391 1,409 1,419 1,427 1,431 1,432 1,470 1,483 1,508 1,520 1,528 1,538 1,541 1,553 1,567 1,569 1,600 1,679 1,682 1,714 1,778 1,781 1,782 1,783 1,796 1,804 1,807 1,834 1,837 1,846 1,849 1,860 1,865 1,867 1,883 1,892 1,895 1}
{4 1,36 1,51 1,53 1,55 1,56 1,61 1,82 1,86 1,96 1,97 1,111 1,113 1,114 1,123 1,152 1,174 1,187 1,207 1,209 1,210 1,216 1,218 1,239 1,251 1,277 1,283 1,290 1,312 1,313 1,361 1,369 1,388 1,391 1,393 1,402 1,409 1,433 1,442 1,450 1,457 1,488 1,521 1,528 1,538 1,545 1,611 1,625 1,628 1,631 1,657 1,703 1,752 1,755 1,763 1,782 1,783 1,785 1,790 1,793 1,796 1,803 1,804 1,807 1,821 1,858 1,867 1,872 1,883 1,890 1,895 1,903 1,904 1}
{14 1,24 1,37 1,51 1,55 1,61 1,76 1,87 1,94 1,131 1,152 1,195 1,204 1,226 1,228 1,264 1,286 1,328 1,332 1,344 1,345 1,357 1,369 1,386 1,388 1,391 1,427 1,454 1,475 1,479 1,495 1,497 1,509 1,518 1,528 1,536 1,540 1,554 1,620 1,646 1,709 1,763 1,770 1,782 1,783 1,796 1,798 1,807 1,854 1,863 1,903 1,909 1,911 1,913 1}
{4 1,14 1,37 1,39 1,55 1,57 1,92 1,114 1,123 1,182 1,204 1,210 1,228 1,241 1,259 1,277 1,280 1,286 1,321 1,322 1,329 1,334 1,361 1,365 1,369 1,388 1,391 1,393 1,397 1,463 1,497 1,518 1,536 1,600 1,603 1,618 1,629 1,657 1,694 1,733 1,746 1,752 1,763 1,782 1,783 1,786 1,788 1,793 1,796 1,804 1,812 1,849 1,854 1,869 1,879 1,883 1,887 1,904 1}
{4 1,32 1,39 1,51 1,88 1,123 1,277 1,357 1,361 1,409 1,428 1,444 1,470 1,528 1,536 1,538 1,543 1,548 1,587 1,591 1,722 1,723 1,725 1,779 1,781 1,785 1,788 1,867 1}
{39 1,61 1,82 1,92 1,123 1,171 1,186 1,207 1,208 1,220 1,228 1,239 1,277 1,300 1,317 1,318 1,321 1,332 1,347 1,354 1,361 1,363 1,365 1,369 1,371 1,391 1,425 1,528 1,533 1,539 1,588 1,745 1,763 1,773 1,779 1,782 1,783 1,807 1,863 1,867 1,894 1,895 1,913 1}
{4 1,39 1,102 1,161 1,212 1,316 1,332 1,365 1,449 1,469 1,502 1,528 1,589 1,683 1,752 1,783 1,785 1,807 1,909 1}
{4 1,24 1,39 1,43 1,45 1,46 1,47 1,51 1,56 1,82 1,86 1,115 1,117 1,168 1,199 1,207 1,277 1,310 1,318 1,325 1,329 1,361 1,369 1,376 1,388 1,392 1,409 1,411 1,441 1,491 1,515 1,518 1,521 1,528 1,536 1,542 1,548 1,581 1,657 1,707 1,738 1,782 1,783 1,787 1,788 1,796 1,805 1,807 1,823 1,854 1,865 1,870 1,883 1,906 1}
{4 1,16 1,24 1,27 1,35 1,37 1,39 1,48 1,55 1,71 1,76 1,81 1,82 1,83 1,85 1,92 1,102 1,114 1,123 1,152 1,153 1,187 1,194 1,196 1,204 1,207 1,235 1,244 1,249 1,267 1,277 1,295 1,308 1,328 1,329 1,332 1,333 1,342 1,345 1,346 1,347 1,350 1,357 1,361 1,362 1,365 1,368 1,369 1,388 1,391 1,402 1,409 1,417 1,423 1,446 1,456 1,457 1,458 1,461 1,464 1,475 1,478 1,479 1,491 1,506 1,507 1,518 1,528 1,535 1,538 1,539 1,549 1,552 1,561 1,569 1,588 1,657 1,676 1,680 1,709 1,716 1,763 1,769 1,779 1,782 1,783 1,788 1,790 1,796 1,807 1,812 1,820 1,834 1,849 1,854 1,856 1,867 1,869 1,872 1,875 1,881 1,883 1,895 1,903 1,909 1,910 1,913 1}
{4 1,5 1,6 1,14 1,24 1,29 1,32 1,37 1,39 1,51 1,56 1,57 1,67 1,82 1,83 1,87 1,92 1,93 1,108 1,114 1,115 1,123 1,152 1,153 1,170 1,177 1,181 1,204 1,210 1,211 1,222 1,228 1,244 1,245 1,267 1,277 1,286 1,300 1,302 1,328 1,329 1,346 1,355 1,361 1,365 1,369 1,386 1,388 1,391 1,396 1,402 1,433 1,450 1,455 1,457 1,463 1,468 1,482 1,488 1,495 1,497 1,508 1,515 1,517 1,520 1,528 1,532 1,536 1,537 1,541 1,545 1,563 1,564 1,567 1,657 1,687 1,693 1,696 1,703 1,709 1,714 1,716 1,717 1,746 1,755 1,760 1,763 1,766 1,768 1,779 1,782 1,783 1,785 1,786 1,790 1,793 1,796 1,804 1,807 1,818 1,821 1,824 1,859 1,867 1,868 1,873 1,877 1,883 1,885 1,904 1,909 1,911 1}
{4 1,5 1,11 1,37 1,39 1,43 1,45 1,61 1,71 1,82 1,92 1,110 1,128 1,160 1,189 1,204 1,207 1,211 1,228 1,238 1,255 1,277 1,302 1,332 1,345 1,369 1,382 1,386 1,388 1,391 1,402 1,409 1,425 1,433 1,442 1,497 1,509 1,528 1,531 1,536 1,541 1,590 1,657 1,681 1,715 1,725 1,783 1,791 1,792 1,796 1,807 1,854 1,867 1,871 1,875 1,879 1}
{4 1,6 1,22 1,24 1,37 1,39 1,55 1,82 1,83 1,85 1,106 1,114 1,115 1,170 1,195 1,204 1,224 1,228 1,229 1,245 1,271 1,277 1,286 1,295 1,302 1,310 1,317 1,321 1,325 1,328 1,329 1,332 1,336 1,350 1,353 1,357 1,361 1,369 1,388 1,391 1,402 1,417 1,418 1,423 1,439 1,443 1,449 1,456 1,457 1,459 1,470 1,475 1,478 1,497 1,508 1,512 1,513 1,518 1,528 1,536 1,538 1,539 1,548 1,553 1,567 1,585 1,616 1,624 1,630 1,657 1,659 1,660 1,703 1,709 1,740 1,744 1,763 1,768 1,769 1,782 1,783 1,784 1,786 1,788 1,790 1,791 1,796 1,799 1,800 1,804 1,805 1,807 1,854 1,856 1,863 1,867 1,869 1,873 1,875 1,879 1,881 1,895 1,903 1,904 1,913 1}
{4 1,24 1,29 1,31 1,39 1,43 1,51 1,53 1,56 1,71 1,82 1,83 1,92 1,93 1,106 1,130 1,152 1,157 1,177 1,205 1,207 1,222 1,230 1,243 1,277 1,286 1,293 1,310 1,328 1,361 1,365 1,368 1,369 1,388 1,391 1,396 1,416 1,432 1,453 1,455 1,468 1,471 1,491 1,493 1,497 1,516 1,518 1,520 1,528 1,536 1,538 1,541 1,548 1,550 1,557 1,583 1,587 1,623 1,638 1,647 1,657 1,699 1,714 1,730 1,746 1,752 1,758 1,763 1,779 1,782 1,783 1,786 1,788 1,791 1,794 1,807 1,824 1,829 1,849 1,854 1,863 1,865 1,869 1,890 1,895 1,909 1,911 1}
{4 1,6 1,32 1,39 1,82 1,168 1,209 1,242 1,290 1,361 1,369 1,377 1,382 1,456 1,501 1,528 1,536 1,558 1,587 1,589 1,608 1,672 1,714 1,715 1,780 1,782 1,783 1,807 1,838 1,895 1}
{105 1,116 1,151 1,181 1,182 1,240 1,295 1,296 1,337 1,339 1,359 1,388 1,396 1,398 1,412 1,528 1,619 1,624 1,708 1,745 1,783 1,910 1,913 1}
{4 1,6 1,29 1,39 1,82 1,85 1,147 1,190 1,222 1,242 1,265 1,293 1,315 1,328 1,369 1,388 1,455 1,463 1,528 1,573 1,618 1,671 1,695 1,788 1,796 1,831 1}
{4 1,6 1,24 1,37 1,39 1,48 1,51 1,82 1,88 1,111 1,114 1,123 1,137 1,152 1,156 1,168 1,179 1,186 1,196 1,210 1,277 1,312 1,336 1,361 1,365 1,369 1,391 1,402 1,433 1,439 1,453 1,460 1,497 1,501 1,518 1,536 1,540 1,545 1,546 1,554 1,638 1,689 1,714 1,725 1,743 1,755 1,761 1,763 1,782 1,783 1,793 1,796 1,800 1,807 1,832 1,836 1,851 1,853 1,854 1,877 1,879 1,904 1}
{4 1,39 1,51 1,52 1,106 1,168 1,177 1,204 1,262 1,277 1,329 1,353 1,361 1,369 1,407 1,409 1,427 1,428 1,468 1,470 1,491 1,528 1,538 1,541 1,583 1,587 1,647 1,714 1,782 1,783 1,790 1,807 1,823 1,860 1,913 1}
{4 1,24 1,37 1,39 1,43 1,51 1,61 1,82 1,83 1,84 1,85 1,106 1,108 1,121 1,123 1,182 1,204 1,211 1,213 1,220 1,223 1,245 1,251 1,267 1,274 1,277 1,280 1,285 1,299 1,301 1,321 1,328 1,329 1,338 1,363 1,369 1,388 1,389 1,391 1,417 1,445 1,447 1,463 1,489 1,513 1,517 1,518 1,528 1,536 1,538 1,541 1,568 1,599 1,618 1,655 1,669 1,681 1,682 1,693 1,701 1,759 1,763 1,778 1,781 1,782 1,783 1,789 1,790 1,791 1,796 1,805 1,807 1,867 1,872 1,883 1,894 1,895 1,904 1}
{4 1,9 1,14 1,29 1,31 1,39 1,48 1,51 1,52 1,55 1,61 1,137 1,140 1,152 1,179 1,200 1,210 1,244 1,268 1,273 1,277 1,286 1,308 1,321 1,328 1,361 1,365 1,369 1,372 1,388 1,392 1,417 1,441 1,450 1,460 1,497 1,506 1,515 1,518 1,521 1,528 1,536 1,540 1,552 1,554 1,562 1,625 1,657 1,725 1,740 1,743 1,746 1,763 1,783 1,788 1,793 1,800 1,804 1,807 1,823 1,832 1,851 1,865 1,872 1,879 1,904 1,909 1}
{4 1,13 1,14 1,18 1,39 1,42 1,43 1,49 1,51 1,56 1,73 1,85 1,92 1,109 1,114 1,115 1,116 1,173 1,196 1,203 1,204 1,214 1,225 1,244 1,262 1,267 1,277 1,286 1,328 1,333 1,345 1,361 1,369 1,385 1,386 1,388 1,402 1,409 1,448 1,453 1,460 1,470 1,484 1,495 1,497 1,518 1,521 1,525 1,528 1,539 1,548 1,552 1,553 1,555 1,561 1,577 1,603 1,630 1,635 1,656 1,657 1,676 1,686 1,710 1,745 1,763 1,779 1,782 1,783 1,784 1,796 1,802 1,807 1,812 1,834 1,854 1,855 1,859 1,877 1,893 1,909 1,913 1}
{4 1,6 1,11 1,19 1,24 1,39 1,43 1,51 1,55 1,58 1,61 1,83 1,85 1,114 1,121 1,123 1,152 1,174 1,197 1,204 1,207 1,210 1,229 1,242 1,253 1,260 1,267 1,271 1,277 1,280 1,286 1,299 1,309 1,321 1,329 1,332 1,342 1,343 1,369 1,370 1,388 1,391 1,402 1,409 1,427 1,431 1,447 1,448 1,463 1,468 1,491 1,495 1,517 1,518 1,521 1,528 1,529 1,532 1,536 1,539 1,541 1,554 1,559 1,567 1,568 1,569 1,580 1,603 1,622 1,630 1,632 1,641 1,644 1,701 1,709 1,714 1,715 1,716 1,749 1,763 1,772 1,782 1,783 1,784 1,788 1,796 1,798 1,807 1,831 1,842 1,843 1,854 1,856 1,859 1,862 1,867 1,870 1,875 1,883 1,909 1,911 1}
{4 1,7 1,37 1,39 1,48 1,51 1,56 1,115 1,131 1,137 1,152 1,171 1,179 1,204 1,207 1,224 1,238 1,247 1,268 1,277 1,321 1,342 1,361 1,369 1,388 1,391 1,402 1,413 1,460 1,496 1,497 1,518 1,520 1,528 1,536 1,538 1,540 1,550 1,554 1,565 1,641 1,644 1,651 1,661 1,718 1,725 1,739 1,743 1,752 1,777 1,783 1,784 1,790 1,791 1,796 1,807 1,813 1,828 1,832 1,851 1,854 1,869 1,872 1,879 1,883 1,884 1,904 1,909 1,911 1}
{4 1,6 1,14 1,30 1,32 1,39 1,41 1,51 1,55 1,56 1,61 1,70 1,71 1,82 1,92 1,115 1,153 1,154 1,169 1,204 1,210 1,219 1,224 1,228 1,233 1,251 1,277 1,286 1,297 1,303 1,318 1,325 1,332 1,345 1,357 1,361 1,365 1,369 1,378 1,385 1,388 1,391 1,409 1,417 1,423 1,425 1,460 1,463 1,464 1,471 1,478 1,479 1,515 1,528 1,538 1,539 1,541 1,549 1,553 1,574 1,657 1,676 1,681 1,733 1,746 1,763 1,782 1,783 1,786 1,793 1,796 1,805 1,807 1,822 1,834 1,836 1,837 1,854 1,868 1,875 1,888 1,890 1,895 1,909 1,913 1}
{4 1,18 1,30 1,39 1,57 1,59 1,70 1,85 1,114 1,123 1,128 1,184 1,205 1,210 1,218 1,267 1,275 1,286 1,302 1,328 1,361 1,365 1,369 1,388 1,391 1,409 1,414 1,478 1,497 1,508 1,528 1,538 1,552 1,603 1,616 1,642 1,671 1,693 1,701 1,745 1,763 1,772 1,782 1,783 1,784 1,793 1,796 1,807 1,824 1,854 1,855 1,883 1,904 1,909 1,911 1}
{4 1,24 1,37 1,39 1,41 1,43 1,45 1,46 1,47 1,48 1,55 1,56 1,82 1,86 1,115 1,117 1,122 1,123 1,168 1,179 1,199 1,207 1,277 1,286 1,308 1,318 1,329 1,335 1,361 1,369 1,376 1,388 1,391 1,394 1,409 1,437 1,453 1,478 1,491 1,515 1,518 1,525 1,528 1,536 1,542 1,548 1,554 1,569 1,580 1,581 1,657 1,707 1,714 1,725 1,751 1,753 1,755 1,763 1,779 1,782 1,783 1,784 1,788 1,793 1,805 1,807 1,823 1,834 1,854 1,859 1,865 1,870 1,873 1,883 1,895 1,909 1,911 1}
{4 1,5 1,6 1,14 1,29 1,30 1,39 1,48 1,51 1,56 1,70 1,74 1,76 1,82 1,85 1,88 1,93 1,114 1,116 1,123 1,149 1,177 1,179 1,207 1,267 1,277 1,286 1,303 1,308 1,313 1,318 1,321 1,328 1,329 1,330 1,332 1,335 1,336 1,339 1,356 1,357 1,361 1,369 1,388 1,391 1,403 1,404 1,417 1,426 1,433 1,442 1,443 1,444 1,453 1,469 1,478 1,479 1,495 1,497 1,508 1,518 1,528 1,535 1,545 1,586 1,600 1,617 1,657 1,676 1,680 1,694 1,703 1,709 1,714 1,719 1,721 1,733 1,755 1,763 1,769 1,782 1,783 1,784 1,790 1,796 1,804 1,807 1,812 1,834 1,846 1,849 1,853 1,854 1,863 1,867 1,875 1,879 1,883 1,895 1,903 1,904 1,909 1,910 1,913 1}
{4 1,6 1,24 1,31 1,39 1,43 1,45 1,55 1,56 1,114 1,120 1,122 1,123 1,128 1,130 1,204 1,207 1,210 1,228 1,277 1,285 1,300 1,305 1,328 1,329 1,344 1,361 1,365 1,369 1,377 1,386 1,388 1,391 1,402 1,409 1,416 1,433 1,439 1,449 1,483 1,497 1,500 1,521 1,528 1,533 1,536 1,538 1,541 1,553 1,601 1,615 1,627 1,633 1,635 1,638 1,667 1,709 1,763 1,783 1,785 1,790 1,796 1,799 1,807 1,818 1,835 1,849 1,854 1,859 1,860 1,869 1,870 1,883 1,889 1,895 1,903 1}
{4 1,24 1,26 1,32 1,47 1,54 1,55 1,69 1,85 1,114 1,115 1,123 1,132 1,148 1,155 1,169 1,182 1,204 1,207 1,228 1,245 1,269 1,270 1,277 1,311 1,321 1,328 1,357 1,361 1,365 1,369 1,388 1,391 1,400 1,401 1,433 1,453 1,454 1,466 1,468 1,501 1,504 1,518 1,528 1,529 1,542 1,546 1,552 1,625 1,654 1,657 1,681 1,716 1,721 1,755 1,763 1,783 1,790 1,807 1,859 1,863 1,867 1,870 1,884 1,909 1}
{4 1,12 1,15 1,22 1,29 1,39 1,45 1,51 1,56 1,62 1,73 1,85 1,97 1,101 1,105 1,114 1,119 1,141 1,145 1,151 1,168 1,169 1,180 1,182 1,204 1,226 1,228 1,277 1,356 1,361 1,365 1,369 1,388 1,391 1,396 1,402 1,412 1,419 1,433 1,436 1,437 1,441 1,453 1,458 1,470 1,483 1,509 1,514 1,518 1,525 1,528 1,552 1,657 1,661 1,734 1,735 1,746 1,766 1,783 1,784 1,807 1,815 1,834 1,861 1,863 1,866 1,908 1,909 1,913 1}
{4 1,29 1,32 1,37 1,39 1,43 1,51 1,54 1,56 1,58 1,61 1,65 1,82 1,83 1,114 1,121 1,169 1,197 1,205 1,210 1,213 1,232 1,239 1,259 1,269 1,277 1,300 1,307 1,308 1,321 1,328 1,329 1,332 1,336 1,344 1,345 1,358 1,361 1,386 1,388 1,409 1,457 1,470 1,497 1,509 1,518 1,520 1,525 1,528 1,534 1,536 1,539 1,541 1,553 1,562 1,615 1,657 1,660 1,687 1,709 1,714 1,716 1,763 1,782 1,783 1,784 1,789 1,793 1,796 1,807 1,818 1,819 1,833 1,837 1,852 1,854 1,859 1,872 1,875 1,879 1,883 1,894 1}
{24 1,51 1,83 1,182 1,228 1,245 1,270 1,321 1,357 1,433 1,528 1,541 1,552 1,567 1,594 1,671 1,681 1,725 1,782 1,783 1,796 1,807 1,859 1,909 1}
{82 1,243 1,361 1,369 1,433 1,469 1,515 1,541 1,630 1,763 1,782 1,783 1,835 1,913 1}
{4 1,43 1,82 1,98 1,114 1,204 1,207 1,210 1,277 1,280 1,305 1,329 1,357 1,361 1,365 1,376 1,383 1,402 1,409 1,506 1,518 1,528 1,536 1,552 1,623 1,630 1,679 1,693 1,763 1,779 1,783 1,793 1,796 1,807 1,852 1,859 1,863 1,877 1,893 1,895 1,909 1}
{4 1,14 1,23 1,24 1,39 1,43 1,54 1,56 1,77 1,82 1,114 1,115 1,138 1,170 1,176 1,204 1,225 1,228 1,277 1,307 1,310 1,326 1,329 1,342 1,360 1,361 1,363 1,364 1,369 1,386 1,388 1,402 1,409 1,428 1,453 1,457 1,458 1,469 1,477 1,478 1,496 1,509 1,518 1,522 1,528 1,541 1,548 1,552 1,567 1,603 1,615 1,629 1,660 1,666 1,670 1,682 1,709 1,714 1,719 1,725 1,729 1,743 1,752 1,782 1,783 1,785 1,786 1,791 1,793 1,796 1,807 1,809 1,834 1,837 1,854 1,857 1,859 1,870 1,877 1,883 1,895 1}
{32 1,39 1,43 1,61 1,66 1,72 1,75 1,78 1,105 1,138 1,204 1,245 1,270 1,277 1,294 1,295 1,305 1,329 1,347 1,361 1,369 1,376 1,377 1,382 1,442 1,536 1,541 1,585 1,635 1,656 1,724 1,781 1,783 1,796 1,807 1,852 1,870 1,913 1}
{4 1,14 1,31 1,32 1,37 1,39 1,43 1,55 1,61 1,85 1,92 1,123 1,168 1,201 1,204 1,228 1,239 1,241 1,246 1,259 1,267 1,277 1,286 1,322 1,328 1,329 1,361 1,365 1,369 1,388 1,391 1,397 1,445 1,453 1,497 1,521 1,535 1,536 1,539 1,567 1,603 1,657 1,667 1,694 1,695 1,714 1,746 1,752 1,763 1,779 1,780 1,782 1,783 1,788 1,796 1,804 1,807 1,810 1,837 1,849 1,865 1,869 1,879 1,887 1,909 1,911 1}
{210 1,277 1,357 1,361 1,369 1,376 1,391 1,402 1,433 1,453 1,478 1,491 1,515 1,536 1,552 1,714 1,763 1,782 1,783 1,796 1}
{4 1,7 1,37 1,39 1,42 1,45 1,61 1,76 1,82 1,87 1,97 1,99 1,168 1,224 1,261 1,277 1,361 1,365 1,369 1,388 1,391 1,409 1,470 1,475 1,502 1,528 1,536 1,541 1,650 1,734 1,782 1,783 1,807 1,812 1,871 1,888 1,895 1,913 1}
{4 1,39 1,114 1,194 1,207 1,245 1,256 1,362 1,365 1,369 1,388 1,391 1,393 1,402 1,470 1,518 1,528 1,616 1,648 1,681 1,782 1,783 1,788 1,807 1,820 1,849 1,906 1}
{4 1,29 1,39 1,61 1,75 1,82 1,85 1,86 1,88 1,106 1,114 1,115 1,168 1,211 1,225 1,258 1,271 1,300 1,305 1,307 1,321 1,329 1,333 1,344 1,361 1,365 1,369 1,388 1,391 1,394 1,399 1,425 1,452 1,454 1,460 1,465 1,468 1,480 1,490 1,518 1,521 1,528 1,536 1,541 1,542 1,552 1,652 1,655 1,665 1,690 1,694 1,695 1,714 1,763 1,782 1,783 1,784 1,785 1,790 1,796 1,807 1,819 1,834 1,835 1,843 1,844 1,859 1,864 1,871 1,895 1}
{4 1,29 1,39 1,51 1,56 1,61 1,68 1,82 1,83 1,88 1,114 1,176 1,177 1,180 1,213 1,253 1,261 1,293 1,304 1,307 1,308 1,325 1,328 1,332 1,361 1,369 1,389 1,391 1,397 1,404 1,428 1,444 1,447 1,478 1,479 1,495 1,518 1,528 1,552 1,575 1,577 1,630 1,685 1,695 1,763 1,766 1,779 1,782 1,783 1,784 1,788 1,790 1,791 1,793 1,796 1,800 1,807 1,834 1,837 1,854 1,863 1,872 1,880 1,883 1,913 1}
{4 1,39 1,83 1,177 1,234 1,267 1,277 1,347 1,361 1,376 1,379 1,417 1,453 1,455 1,497 1,510 1,528 1,567 1,755 1,763 1,780 1,788 1,800 1,802 1,807 1,818 1,822 1,865 1,867 1,869 1,875 1}
{5 1,23 1,24 1,39 1,55 1,56 1,61 1,70 1,80 1,82 1,85 1,94 1,123 1,164 1,204 1,228 1,277 1,314 1,324 1,329 1,337 1,342 1,357 1,361 1,365 1,369 1,388 1,391 1,402 1,428 1,453 1,460 1,477 1,491 1,505 1,518 1,520 1,522 1,528 1,538 1,548 1,554 1,587 1,657 1,664 1,690 1,714 1,717 1,732 1,743 1,752 1,783 1,792 1,807 1,815 1,825 1,834 1,867 1,879 1,883 1,890 1,895 1,909 1,911 1,912 1}
{4 1,6 1,8 1,22 1,37 1,39 1,43 1,55 1,61 1,66 1,76 1,87 1,91 1,92 1,114 1,115 1,208 1,228 1,247 1,260 1,271 1,272 1,277 1,286 1,308 1,310 1,313 1,321 1,329 1,332 1,344 1,345 1,349 1,361 1,369 1,388 1,391 1,398 1,402 1,417 1,423 1,428 1,433 1,443 1,449 1,457 1,469 1,491 1,506 1,514 1,528 1,536 1,561 1,586 1,601 1,655 1,657 1,667 1,676 1,716 1,740 1,763 1,779 1,782 1,783 1,793 1,796 1,797 1,799 1,804 1,807 1,823 1,834 1,835 1,849 1,854 1,867 1,883 1,895 1,903 1,904 1,909 1,913 1}
{4 1,15 1,24 1,32 1,39 1,56 1,61 1,126 1,189 1,195 1,207 1,277 1,307 1,308 1,315 1,334 1,336 1,338 1,361 1,388 1,392 1,402 1,433 1,468 1,473 1,480 1,493 1,497 1,518 1,528 1,536 1,559 1,592 1,611 1,616 1,657 1,681 1,693 1,703 1,709 1,733 1,764 1,781 1,782 1,783 1,796 1,798 1,799 1,807 1,831 1,853 1,854 1,872 1,875 1,879 1,883 1,907 1}
{4 1,9 1,21 1,23 1,24 1,29 1,48 1,52 1,55 1,61 1,82 1,92 1,115 1,123 1,152 1,170 1,182 1,195 1,196 1,200 1,210 1,211 1,224 1,228 1,245 1,270 1,271 1,273 1,277 1,286 1,299 1,303 1,311 1,321 1,329 1,357 1,361 1,365 1,369 1,383 1,388 1,391 1,433 1,442 1,449 1,453 1,470 1,501 1,515 1,522 1,528 1,536 1,538 1,552 1,562 1,616 1,642 1,681 1,714 1,715 1,725 1,728 1,762 1,763 1,779 1,782 1,783 1,789 1,790 1,793 1,796 1,807 1,835 1,846 1,854 1,859 1,879 1,883 1,890 1,909 1,911 1}
{4 1,6 1,14 1,15 1,17 1,19 1,24 1,27 1,30 1,35 1,39 1,41 1,51 1,55 1,56 1,61 1,64 1,66 1,71 1,72 1,76 1,80 1,81 1,82 1,83 1,85 1,88 1,91 1,92 1,94 1,95 1,101 1,106 1,109 1,114 1,115 1,116 1,121 1,123 1,152 1,168 1,169 1,177 1,180 1,187 1,188 1,204 1,206 1,228 1,233 1,240 1,244 1,246 1,252 1,274 1,277 1,279 1,294 1,303 1,308 1,321 1,329 1,332 1,339 1,344 1,345 1,349 1,352 1,357 1,361 1,365 1,369 1,388 1,389 1,391 1,394 1,396 1,402 1,404 1,425 1,433 1,439 1,441 1,442 1,446 1,449 1,453 1,463 1,464 1,470 1,483 1,493 1,495 1,505 1,507 1,509 1,512 1,518 1,520 1,521 1,524 1,525 1,528 1,529 1,536 1,538 1,539 1,541 1,552 1,567 1,576 1,583 1,586 1,618 1,625 1,627 1,632 1,641 1,647 1,657 1,660 1,667 1,668 1,676 1,679 1,691 1,703 1,709 1,716 1,721 1,729 1,735 1,751 1,763 1,769 1,779 1,782 1,783 1,784 1,785 1,789 1,790 1,791 1,793 1,796 1,804 1,807 1,812 1,820 1,832 1,834 1,846 1,849 1,854 1,856 1,858 1,859 1,861 1,863 1,865 1,867 1,869 1,872 1,877 1,879 1,883 1,893 1,898 1,903 1,904 1,909 1,910 1,911 1,913 1}
{4 1,6 1,12 1,29 1,39 1,41 1,51 1,82 1,85 1,106 1,114 1,183 1,222 1,232 1,235 1,242 1,277 1,286 1,293 1,310 1,315 1,328 1,334 1,357 1,361 1,369 1,379 1,386 1,388 1,390 1,391 1,436 1,439 1,453 1,463 1,473 1,478 1,497 1,510 1,518 1,528 1,541 1,550 1,594 1,596 1,601 1,618 1,625 1,657 1,671 1,695 1,754 1,783 1,788 1,794 1,796 1,807 1,850 1,871 1,872 1,909 1}
{4 1,5 1,6 1,11 1,24 1,37 1,39 1,43 1,45 1,46 1,61 1,70 1,71 1,82 1,83 1,92 1,96 1,110 1,115 1,123 1,166 1,182 1,191 1,204 1,207 1,210 1,211 1,228 1,243 1,245 1,255 1,270 1,271 1,277 1,300 1,302 1,308 1,321 1,329 1,332 1,333 1,335 1,345 1,357 1,361 1,365 1,369 1,382 1,386 1,388 1,391 1,402 1,409 1,425 1,433 1,437 1,442 1,452 1,465 1,471 1,481 1,485 1,497 1,509 1,515 1,518 1,521 1,528 1,531 1,535 1,536 1,541 1,544 1,548 1,552 1,554 1,590 1,607 1,657 1,660 1,667 1,681 1,702 1,709 1,714 1,715 1,716 1,720 1,725 1,750 1,763 1,782 1,783 1,784 1,788 1,790 1,791 1,792 1,793 1,796 1,807 1,822 1,834 1,846 1,849 1,854 1,859 1,865 1,867 1,870 1,871 1,875 1,877 1,879 1,887 1,895 1,909 1}
{4 1,6 1,14 1,29 1,37 1,39 1,45 1,48 1,49 1,51 1,55 1,61 1,76 1,82 1,85 1,87 1,102 1,114 1,115 1,168 1,171 1,195 1,207 1,211 1,220 1,228 1,235 1,277 1,295 1,325 1,328 1,329 1,332 1,344 1,345 1,349 1,353 1,361 1,365 1,369 1,388 1,391 1,439 1,462 1,506 1,508 1,528 1,538 1,552 1,598 1,619 1,630 1,635 1,656 1,657 1,676 1,687 1,695 1,708 1,714 1,720 1,729 1,742 1,750 1,752 1,782 1,783 1,788 1,790 1,791 1,792 1,793 1,796 1,807 1,814 1,841 1,854 1,860 1,875 1,897 1,913 1}
{4 1,5 1,13 1,24 1,36 1,37 1,39 1,48 1,51 1,56 1,59 1,61 1,70 1,83 1,87 1,92 1,94 1,117 1,123 1,137 1,138 1,146 1,170 1,210 1,213 1,271 1,273 1,277 1,281 1,286 1,310 1,311 1,326 1,329 1,336 1,355 1,361 1,365 1,369 1,388 1,409 1,417 1,427 1,429 1,441 1,463 1,468 1,491 1,495 1,501 1,515 1,518 1,523 1,528 1,536 1,538 1,539 1,541 1,553 1,599 1,603 1,604 1,631 1,642 1,643 1,728 1,763 1,779 1,782 1,783 1,786 1,789 1,796 1,801 1,804 1,807 1,812 1,833 1,834 1,835 1,841 1,846 1,867 1,872 1,879 1,883 1,887 1,909 1,911 1}
{4 1,6 1,23 1,24 1,29 1,31 1,32 1,37 1,39 1,51 1,52 1,55 1,61 1,75 1,82 1,97 1,111 1,114 1,123 1,150 1,160 1,164 1,165 1,177 1,184 1,199 1,204 1,208 1,210 1,213 1,220 1,225 1,228 1,235 1,239 1,246 1,271 1,273 1,277 1,281 1,286 1,288 1,301 1,313 1,314 1,326 1,329 1,337 1,342 1,357 1,361 1,364 1,365 1,369 1,388 1,391 1,392 1,402 1,409 1,412 1,426 1,428 1,432 1,433 1,441 1,449 1,453 1,456 1,457 1,459 1,460 1,470 1,477 1,485 1,495 1,509 1,518 1,522 1,528 1,529 1,536 1,537 1,538 1,541 1,550 1,559 1,565 1,574 1,587 1,588 1,601 1,607 1,630 1,655 1,657 1,703 1,714 1,716 1,731 1,732 1,739 1,752 1,763 1,764 1,768 1,777 1,782 1,783 1,785 1,786 1,788 1,790 1,791 1,796 1,807 1,815 1,821 1,822 1,825 1,827 1,833 1,834 1,836 1,867 1,872 1,875 1,877 1,879 1,890 1,900 1,909 1,912 1}
{4 1,11 1,15 1,17 1,29 1,31 1,37 1,39 1,45 1,55 1,56 1,61 1,80 1,85 1,93 1,101 1,106 1,114 1,115 1,127 1,169 1,171 1,180 1,195 1,204 1,208 1,224 1,228 1,233 1,242 1,277 1,280 1,294 1,308 1,315 1,317 1,321 1,323 1,329 1,345 1,346 1,357 1,361 1,369 1,383 1,391 1,396 1,429 1,433 1,458 1,463 1,470 1,493 1,495 1,509 1,518 1,523 1,525 1,528 1,536 1,541 1,548 1,552 1,553 1,559 1,585 1,588 1,632 1,657 1,677 1,682 1,714 1,716 1,719 1,729 1,735 1,752 1,763 1,779 1,782 1,783 1,784 1,789 1,790 1,791 1,796 1,799 1,804 1,807 1,834 1,846 1,854 1,861 1,865 1,913 1}
{1 1,4 1,11 1,39 1,61 1,114 1,115 1,152 1,194 1,207 1,245 1,256 1,286 1,299 1,357 1,362 1,365 1,369 1,388 1,391 1,402 1,468 1,470 1,474 1,518 1,528 1,616 1,648 1,681 1,782 1,783 1,788 1,804 1,807 1,820 1,831 1,849 1,867 1,883 1,884 1,892 1,906 1}
{4 1,14 1,23 1,24 1,29 1,36 1,39 1,56 1,112 1,115 1,123 1,134 1,158 1,159 1,168 1,192 1,204 1,228 1,235 1,277 1,304 1,328 1,329 1,342 1,361 1,365 1,369 1,388 1,391 1,402 1,433 1,453 1,457 1,477 1,478 1,488 1,491 1,518 1,522 1,528 1,529 1,536 1,541 1,548 1,552 1,567 1,606 1,647 1,707 1,721 1,725 1,743 1,752 1,782 1,783 1,785 1,788 1,796 1,807 1,867 1,895 1,903 1}
{78 1,347 1,405 1,479 1,552 1,657 1,883 1,913 1}
{4 1,6 1,32 1,37 1,39 1,45 1,56 1,85 1,100 1,117 1,201 1,204 1,222 1,260 1,266 1,284 1,285 1,307 1,321 1,326 1,328 1,329 1,361 1,369 1,377 1,388 1,402 1,409 1,455 1,470 1,497 1,515 1,528 1,536 1,539 1,587 1,714 1,720 1,777 1,781 1,782 1,783 1,790 1,791 1,796 1,804 1,807 1,837 1,867 1,875 1,883 1,898 1}
{4 1,13 1,39 1,171 1,234 1,258 1,332 1,344 1,345 1,361 1,365 1,369 1,391 1,394 1,436 1,470 1,481 1,528 1,536 1,538 1,565 1,587 1,596 1,628 1,651 1,657 1,683 1,715 1,716 1,783 1,796 1,807 1,853 1,895 1}
{4 1,11 1,22 1,24 1,39 1,45 1,51 1,53 1,56 1,61 1,82 1,88 1,102 1,207 1,210 1,313 1,319 1,328 1,329 1,332 1,344 1,353 1,357 1,361 1,369 1,404 1,518 1,528 1,630 1,656 1,657 1,679 1,687 1,695 1,703 1,720 1,763 1,782 1,783 1,790 1,791 1,793 1,796 1,807 1,859 1,866 1,875 1,877 1,897 1,913 1}
{4 1,6 1,29 1,37 1,39 1,45 1,65 1,82 1,114 1,115 1,117 1,166 1,277 1,279 1,285 1,328 1,329 1,332 1,369 1,388 1,402 1,438 1,470 1,518 1,528 1,568 1,630 1,647 1,782 1,783 1,788 1,805 1,835 1,860 1,867 1,895 1,907 1}
{4 1,18 1,23 1,51 1,168 1,228 1,267 1,273 1,332 1,335 1,342 1,361 1,402 1,453 1,477 1,480 1,489 1,509 1,518 1,522 1,528 1,536 1,553 1,661 1,714 1,731 1,782 1,783 1,788 1,867 1}
{17 1,26 1,37 1,39 1,45 1,55 1,56 1,66 1,82 1,93 1,95 1,116 1,123 1,127 1,140 1,180 1,228 1,233 1,282 1,317 1,323 1,329 1,345 1,358 1,361 1,365 1,369 1,383 1,388 1,391 1,394 1,439 1,458 1,469 1,475 1,493 1,528 1,535 1,536 1,559 1,569 1,588 1,601 1,632 1,642 1,657 1,670 1,682 1,695 1,735 1,737 1,773 1,782 1,783 1,784 1,790 1,791 1,825 1,834 1,846 1,854 1,879 1,903 1,909 1,913 1}
{4 1,14 1,267 1,308 1,321 1,361 1,391 1,528 1,538 1,703 1,796 1,804 1,807 1}
{4 1,24 1,29 1,37 1,39 1,55 1,70 1,82 1,83 1,97 1,114 1,152 1,174 1,210 1,216 1,228 1,277 1,283 1,286 1,288 1,300 1,304 1,365 1,369 1,386 1,388 1,391 1,392 1,393 1,402 1,407 1,412 1,437 1,468 1,478 1,502 1,518 1,528 1,529 1,535 1,536 1,587 1,588 1,597 1,623 1,642 1,644 1,657 1,702 1,715 1,716 1,734 1,763 1,779 1,782 1,783 1,792 1,796 1,803 1,807 1,836 1,852 1,859 1,883 1,909 1}
{4 1,6 1,11 1,12 1,19 1,24 1,36 1,39 1,51 1,55 1,56 1,61 1,76 1,82 1,85 1,86 1,91 1,114 1,115 1,116 1,121 1,123 1,126 1,170 1,177 1,195 1,203 1,204 1,210 1,223 1,228 1,239 1,243 1,264 1,271 1,277 1,286 1,289 1,295 1,300 1,308 1,329 1,334 1,345 1,348 1,357 1,359 1,361 1,365 1,369 1,378 1,388 1,391 1,402 1,409 1,417 1,424 1,425 1,439 1,442 1,453 1,469 1,491 1,493 1,506 1,510 1,512 1,514 1,518 1,521 1,524 1,528 1,530 1,533 1,536 1,538 1,539 1,541 1,552 1,553 1,555 1,571 1,572 1,577 1,579 1,600 1,609 1,615 1,624 1,625 1,643 1,650 1,656 1,657 1,667 1,670 1,676 1,695 1,702 1,709 1,714 1,716 1,735 1,763 1,764 1,768 1,781 1,782 1,783 1,784 1,785 1,786 1,789 1,790 1,793 1,796 1,799 1,804 1,807 1,834 1,846 1,849 1,854 1,859 1,860 1,863 1,867 1,875 1,879 1,880 1,882 1,883 1,894 1,903 1,909 1,911 1,913 1}
{4 1,39 1,51 1,56 1,59 1,123 1,286 1,329 1,355 1,361 1,441 1,495 1,523 1,528 1,538 1,553 1,604 1,782 1,783 1,789 1,807 1,812 1,867 1,883 1}
{4 1,6 1,39 1,43 1,45 1,70 1,77 1,85 1,88 1,110 1,114 1,115 1,172 1,177 1,185 1,204 1,207 1,228 1,255 1,277 1,308 1,310 1,313 1,315 1,321 1,326 1,329 1,332 1,335 1,344 1,345 1,361 1,364 1,369 1,386 1,388 1,391 1,397 1,402 1,409 1,477 1,488 1,495 1,501 1,509 1,528 1,531 1,536 1,541 1,590 1,657 1,714 1,725 1,743 1,763 1,782 1,783 1,790 1,792 1,796 1,807 1,826 1,846 1,867 1,870 1,873 1,879 1}
{4 1,6 1,39 1,43 1,56 1,61 1,76 1,85 1,114 1,137 1,138 1,224 1,242 1,267 1,271 1,277 1,317 1,328 1,329 1,332 1,357 1,361 1,369 1,388 1,391 1,410 1,423 1,425 1,433 1,437 1,442 1,445 1,463 1,476 1,491 1,497 1,509 1,515 1,521 1,528 1,531 1,535 1,536 1,538 1,541 1,561 1,568 1,572 1,583 1,636 1,638 1,657 1,660 1,676 1,679 1,682 1,703 1,724 1,770 1,782 1,783 1,784 1,804 1,807 1,809 1,823 1,832 1,841 1,854 1,874 1,883 1,904 1,913 1}
{4 1,37 1,39 1,43 1,51 1,55 1,82 1,83 1,85 1,87 1,142 1,152 1,156 1,168 1,204 1,210 1,213 1,220 1,227 1,242 1,264 1,277 1,285 1,286 1,329 1,334 1,338 1,357 1,361 1,362 1,365 1,369 1,388 1,391 1,393 1,441 1,449 1,451 1,483 1,489 1,493 1,495 1,497 1,517 1,518 1,528 1,529 1,535 1,536 1,541 1,548 1,561 1,616 1,650 1,657 1,680 1,681 1,695 1,707 1,714 1,746 1,748 1,763 1,779 1,782 1,783 1,790 1,796 1,801 1,804 1,807 1,812 1,822 1,823 1,829 1,834 1,836 1,849 1,867 1,878 1,883 1,895 1,903 1,904 1}
{6 1,23 1,29 1,32 1,39 1,51 1,53 1,56 1,61 1,82 1,86 1,114 1,115 1,170 1,172 1,177 1,184 1,185 1,204 1,210 1,213 1,225 1,228 1,277 1,314 1,329 1,337 1,347 1,358 1,361 1,365 1,369 1,388 1,391 1,402 1,409 1,425 1,433 1,495 1,518 1,522 1,528 1,529 1,536 1,541 1,552 1,625 1,691 1,703 1,707 1,716 1,752 1,763 1,764 1,782 1,783 1,786 1,790 1,807 1,826 1,836 1,849 1,852 1,863 1,877 1,879 1,885 1,900 1,906 1,909 1}
{4 1,6 1,24 1,39 1,51 1,116 1,121 1,157 1,190 1,204 1,228 1,239 1,282 1,284 1,286 1,302 1,319 1,329 1,357 1,369 1,391 1,436 1,442 1,508 1,509 1,515 1,518 1,521 1,528 1,535 1,555 1,585 1,587 1,619 1,655 1,657 1,691 1,773 1,783 1,789 1,790 1,797 1,854 1,859 1,865 1,867 1,879 1,903 1,913 1}
{4 1,14 1,29 1,37 1,39 1,41 1,43 1,54 1,56 1,82 1,85 1,104 1,115 1,197 1,201 1,207 1,213 1,244 1,245 1,277 1,286 1,300 1,302 1,305 1,306 1,308 1,328 1,329 1,331 1,332 1,336 1,345 1,369 1,388 1,404 1,427 1,432 1,433 1,437 1,470 1,497 1,518 1,528 1,535 1,536 1,538 1,541 1,551 1,557 1,560 1,703 1,709 1,746 1,781 1,782 1,783 1,789 1,791 1,795 1,796 1,801 1,802 1,804 1,807 1,823 1,835 1,849 1,854 1,867 1,869 1,872 1,877 1,878 1,879 1,903 1,904 1}
{4 1,6 1,30 1,39 1,61 1,90 1,122 1,135 1,245 1,271 1,277 1,321 1,326 1,361 1,369 1,388 1,391 1,402 1,433 1,460 1,491 1,493 1,497 1,528 1,589 1,597 1,607 1,638 1,667 1,677 1,720 1,725 1,779 1,783 1,789 1,790 1,807 1,863 1,865 1,883 1}
{4 1,45 1,177 1,207 1,277 1,329 1,361 1,436 1,528 1,770 1,783 1,893 1,913 1}
{4 1,14 1,36 1,39 1,51 1,55 1,124 1,131 1,146 1,148 1,207 1,228 1,232 1,248 1,270 1,277 1,300 1,302 1,328 1,357 1,361 1,365 1,369 1,388 1,391 1,439 1,441 1,469 1,470 1,508 1,510 1,528 1,536 1,541 1,570 1,592 1,627 1,632 1,648 1,657 1,672 1,681 1,703 1,764 1,782 1,783 1,788 1,793 1,804 1,805 1,807 1,854 1,875 1,909 1,911 1}
{39 1,45 1,52 1,64 1,71 1,82 1,107 1,123 1,152 1,204 1,308 1,332 1,361 1,369 1,388 1,391 1,399 1,450 1,491 1,528 1,536 1,611 1,657 1,716 1,724 1,807 1,849 1,883 1,910 1}
{4 1,11 1,32 1,37 1,49 1,51 1,82 1,83 1,99 1,115 1,123 1,204 1,209 1,218 1,251 1,260 1,271 1,274 1,277 1,286 1,303 1,321 1,329 1,342 1,358 1,361 1,369 1,388 1,417 1,423 1,433 1,453 1,454 1,457 1,470 1,497 1,514 1,528 1,536 1,538 1,541 1,577 1,580 1,590 1,623 1,695 1,715 1,737 1,746 1,782 1,783 1,796 1,807 1,834 1,846 1,863 1,872 1,875 1,879 1,883 1,887 1,895 1,903 1,911 1,913 1}
{4 1,39 1,55 1,61 1,74 1,82 1,85 1,118 1,139 1,182 1,204 1,210 1,217 1,228 1,239 1,267 1,277 1,298 1,305 1,309 1,310 1,328 1,329 1,336 1,357 1,361 1,365 1,369 1,381 1,388 1,391 1,402 1,409 1,429 1,433 1,434 1,439 1,445 1,463 1,470 1,491 1,499 1,515 1,528 1,536 1,568 1,578 1,601 1,692 1,704 1,706 1,716 1,757 1,763 1,765 1,782 1,783 1,790 1,793 1,807 1,812 1,821 1,846 1,854 1,859 1,867 1,883 1,890 1,909 1}
{4 1,47 1,54 1,69 1,136 1,140 1,148 1,155 1,300 1,311 1,321 1,329 1,369 1,400 1,401 1,454 1,468 1,501 1,528 1,542 1,552 1,654 1,782 1,783 1,800 1,875 1,895 1}
{4 1,14 1,24 1,39 1,61 1,81 1,82 1,83 1,115 1,123 1,168 1,173 1,182 1,204 1,235 1,243 1,244 1,246 1,259 1,271 1,277 1,294 1,310 1,321 1,328 1,329 1,332 1,344 1,347 1,349 1,357 1,361 1,369 1,388 1,391 1,396 1,402 1,409 1,417 1,423 1,428 1,437 1,443 1,448 1,454 1,462 1,468 1,495 1,497 1,512 1,528 1,553 1,630 1,647 1,657 1,682 1,739 1,740 1,746 1,782 1,783 1,786 1,791 1,793 1,796 1,807 1,809 1,812 1,814 1,834 1,853 1,854 1,858 1,867 1,873 1,875 1,883 1,903 1,909 1,913 1}
{4 1,39 1,55 1,74 1,93 1,110 1,118 1,139 1,204 1,217 1,228 1,298 1,309 1,311 1,328 1,369 1,381 1,388 1,391 1,499 1,528 1,578 1,647 1,692 1,706 1,716 1,757 1,782 1,783 1,788 1,807 1,812 1,851 1,883 1}
{4 1,39 1,55 1,56 1,97 1,181 1,187 1,222 1,228 1,305 1,311 1,365 1,369 1,388 1,501 1,518 1,594 1,619 1,657 1,671 1,681 1,695 1,738 1,742 1,751 1,783 1,807 1,824 1,830 1,883 1}
{4 1,14 1,17 1,24 1,27 1,39 1,51 1,55 1,56 1,78 1,82 1,83 1,91 1,92 1,98 1,114 1,115 1,122 1,127 1,196 1,210 1,228 1,247 1,251 1,277 1,282 1,304 1,310 1,328 1,329 1,332 1,342 1,343 1,345 1,348 1,353 1,361 1,369 1,388 1,411 1,423 1,427 1,434 1,439 1,441 1,464 1,468 1,495 1,502 1,508 1,515 1,518 1,524 1,536 1,538 1,539 1,548 1,552 1,576 1,596 1,615 1,655 1,657 1,660 1,709 1,715 1,746 1,763 1,773 1,779 1,782 1,783 1,793 1,796 1,807 1,833 1,834 1,854 1,867 1,869 1,879 1,882 1,883 1,903 1,907 1,913 1}
{6 1,29 1,39 1,43 1,51 1,55 1,56 1,57 1,71 1,74 1,82 1,83 1,115 1,118 1,139 1,204 1,210 1,213 1,217 1,228 1,264 1,277 1,280 1,298 1,308 1,309 1,332 1,361 1,363 1,369 1,381 1,388 1,391 1,402 1,409 1,439 1,470 1,491 1,497 1,499 1,515 1,528 1,546 1,552 1,564 1,569 1,578 1,657 1,692 1,703 1,706 1,709 1,714 1,717 1,757 1,763 1,783 1,790 1,796 1,798 1,807 1,812 1,821 1,822 1,834 1,859 1,865 1,872 1,877 1}
{37 1,39 1,56 1,92 1,107 1,178 1,264 1,265 1,277 1,301 1,329 1,361 1,365 1,385 1,495 1,654 1,657 1,714 1,781 1,782 1,783 1,799 1,807 1,829 1,836 1,849 1,865 1,869 1,899 1,909 1}
{4 1,14 1,24 1,82 1,94 1,116 1,168 1,173 1,181 1,228 1,246 1,259 1,264 1,271 1,277 1,294 1,303 1,310 1,328 1,329 1,332 1,344 1,357 1,361 1,391 1,396 1,402 1,409 1,422 1,428 1,437 1,448 1,462 1,528 1,539 1,552 1,657 1,672 1,676 1,709 1,714 1,782 1,783 1,807 1,809 1,825 1,853 1,854 1,855 1,867 1,881 1,913 1}
{4 1,14 1,18 1,20 1,24 1,39 1,55 1,61 1,71 1,74 1,100 1,114 1,118 1,139 1,177 1,195 1,210 1,217 1,220 1,228 1,246 1,260 1,272 1,277 1,281 1,285 1,286 1,298 1,300 1,304 1,308 1,309 1,310 1,321 1,329 1,332 1,338 1,344 1,345 1,351 1,357 1,361 1,365 1,369 1,381 1,388 1,391 1,409 1,426 1,441 1,449 1,463 1,471 1,483 1,499 1,505 1,515 1,518 1,520 1,521 1,528 1,535 1,541 1,567 1,578 1,611 1,630 1,635 1,657 1,659 1,669 1,692 1,693 1,695 1,706 1,709 1,757 1,763 1,777 1,782 1,783 1,788 1,796 1,802 1,804 1,807 1,812 1,823 1,834 1,854 1,856 1,859 1,860 1,867 1,869 1,878 1,883 1,885 1,895 1,903 1,904 1,909 1}
{4 1,39 1,102 1,161 1,212 1,316 1,332 1,365 1,449 1,469 1,502 1,528 1,589 1,683 1,752 1,783 1,785 1,807 1,909 1}
{4 1,19 1,24 1,32 1,37 1,55 1,56 1,72 1,82 1,87 1,94 1,102 1,114 1,122 1,152 1,154 1,170 1,188 1,207 1,208 1,243 1,245 1,246 1,261 1,277 1,286 1,308 1,321 1,332 1,336 1,345 1,346 1,361 1,369 1,417 1,422 1,428 1,449 1,518 1,525 1,528 1,536 1,548 1,552 1,638 1,647 1,657 1,659 1,676 1,679 1,680 1,709 1,713 1,763 1,782 1,783 1,789 1,802 1,807 1,834 1,851 1,865 1,867 1,875 1,879 1,883 1,913 1}
{4 1,11 1,19 1,24 1,32 1,39 1,45 1,51 1,55 1,56 1,74 1,82 1,118 1,126 1,139 1,152 1,168 1,195 1,209 1,217 1,227 1,228 1,243 1,271 1,298 1,309 1,328 1,339 1,361 1,369 1,375 1,381 1,388 1,391 1,453 1,461 1,468 1,488 1,493 1,497 1,499 1,518 1,528 1,536 1,538 1,541 1,556 1,578 1,592 1,601 1,603 1,627 1,657 1,692 1,702 1,706 1,752 1,755 1,757 1,782 1,783 1,796 1,798 1,807 1,812 1,859 1,875 1,879 1,890 1}
{4 1,14 1,15 1,25 1,29 1,39 1,51 1,52 1,56 1,61 1,68 1,70 1,82 1,85 1,86 1,91 1,96 1,114 1,115 1,123 1,153 1,155 1,156 1,158 1,159 1,161 1,166 1,167 1,194 1,199 1,204 1,213 1,223 1,225 1,242 1,264 1,277 1,286 1,288 1,289 1,308 1,314 1,328 1,329 1,342 1,361 1,365 1,369 1,379 1,383 1,386 1,388 1,391 1,392 1,402 1,416 1,420 1,427 1,428 1,430 1,431 1,437 1,441 1,451 1,452 1,465 1,478 1,480 1,486 1,490 1,491 1,493 1,495 1,498 1,501 1,505 1,515 1,518 1,528 1,529 1,535 1,536 1,537 1,541 1,542 1,543 1,552 1,553 1,580 1,581 1,597 1,605 1,607 1,609 1,618 1,629 1,642 1,647 1,657 1,664 1,690 1,691 1,694 1,697 1,707 1,709 1,712 1,725 1,726 1,729 1,743 1,749 1,756 1,761 1,764 1,772 1,776 1,777 1,782 1,783 1,784 1,789 1,796 1,804 1,807 1,812 1,813 1,823 1,825 1,833 1,834 1,836 1,837 1,839 1,845 1,849 1,854 1,859 1,863 1,870 1,872 1,875 1,879 1,883 1,890 1,891 1}
{4 1,24 1,39 1,62 1,82 1,114 1,135 1,154 1,169 1,173 1,210 1,297 1,313 1,332 1,345 1,361 1,369 1,380 1,385 1,391 1,433 1,439 1,477 1,518 1,528 1,536 1,552 1,631 1,657 1,763 1,772 1,782 1,783 1,807 1,834 1,842 1,858 1,913 1}
{4 1,6 1,19 1,24 1,39 1,51 1,55 1,74 1,82 1,114 1,118 1,139 1,181 1,195 1,217 1,228 1,229 1,277 1,298 1,309 1,321 1,326 1,336 1,361 1,369 1,381 1,388 1,391 1,407 1,453 1,457 1,463 1,468 1,479 1,487 1,493 1,499 1,518 1,528 1,536 1,548 1,567 1,568 1,578 1,590 1,657 1,670 1,679 1,688 1,692 1,695 1,706 1,755 1,757 1,763 1,782 1,783 1,784 1,790 1,796 1,800 1,807 1,812 1,813 1,816 1,834 1,835 1,849 1,872 1,883 1,887 1,890 1,896 1,909 1}
{4 1,39 1,55 1,56 1,131 1,149 1,171 1,181 1,210 1,228 1,328 1,329 1,357 1,369 1,379 1,388 1,392 1,402 1,433 1,463 1,515 1,528 1,533 1,548 1,604 1,657 1,761 1,763 1,782 1,783 1,792 1,909 1}
{4 1,6 1,14 1,24 1,30 1,31 1,39 1,43 1,51 1,53 1,67 1,70 1,71 1,73 1,76 1,82 1,85 1,91 1,95 1,102 1,123 1,168 1,204 1,206 1,210 1,213 1,224 1,226 1,232 1,233 1,264 1,267 1,277 1,280 1,284 1,305 1,328 1,329 1,343 1,361 1,365 1,369 1,388 1,391 1,398 1,402 1,412 1,428 1,448 1,449 1,479 1,495 1,497 1,498 1,518 1,520 1,525 1,528 1,538 1,636 1,746 1,763 1,769 1,770 1,782 1,783 1,784 1,788 1,790 1,796 1,807 1,815 1,820 1,854 1,866 1,870 1,873 1,875 1,880 1,883 1,895 1,904 1,909 1,910 1,913 1}
{4 1,24 1,29 1,39 1,41 1,43 1,51 1,55 1,56 1,82 1,113 1,114 1,123 1,152 1,201 1,204 1,207 1,214 1,234 1,250 1,284 1,291 1,300 1,328 1,329 1,331 1,361 1,365 1,369 1,388 1,391 1,399 1,404 1,433 1,453 1,456 1,478 1,506 1,512 1,515 1,518 1,525 1,528 1,529 1,536 1,567 1,629 1,631 1,660 1,737 1,739 1,782 1,783 1,790 1,796 1,807 1,810 1,852 1,868 1,909 1}
{4 1,6 1,39 1,52 1,56 1,82 1,283 1,320 1,344 1,361 1,363 1,365 1,369 1,371 1,388 1,391 1,468 1,493 1,528 1,541 1,588 1,627 1,657 1,678 1,771 1,782 1,783 1,805 1,807 1,854 1,883 1,909 1}
{4 1,6 1,39 1,51 1,56 1,61 1,102 1,277 1,329 1,331 1,361 1,369 1,423 1,430 1,453 1,456 1,512 1,518 1,524 1,529 1,541 1,585 1,600 1,625 1,657 1,703 1,744 1,783 1,784 1,790 1,798 1,807 1,863 1,871 1,875 1,879 1,890 1,913 1}
{4 1,6 1,24 1,39 1,51 1,55 1,56 1,82 1,93 1,97 1,123 1,125 1,131 1,168 1,175 1,201 1,207 1,228 1,246 1,253 1,270 1,271 1,277 1,313 1,329 1,334 1,358 1,361 1,365 1,369 1,388 1,391 1,408 1,439 1,445 1,473 1,474 1,488 1,495 1,508 1,515 1,518 1,528 1,538 1,552 1,564 1,567 1,570 1,657 1,660 1,714 1,752 1,768 1,782 1,783 1,788 1,790 1,793 1,796 1,798 1,804 1,807 1,818 1,835 1,842 1,849 1,859 1,867 1,869 1,872 1,877 1,879 1,883 1,895 1,909 1}
{4 1,14 1,25 1,29 1,51 1,55 1,82 1,114 1,128 1,156 1,172 1,182 1,183 1,207 1,209 1,210 1,228 1,245 1,267 1,270 1,271 1,273 1,277 1,307 1,308 1,312 1,313 1,329 1,369 1,388 1,389 1,391 1,420 1,454 1,460 1,488 1,495 1,505 1,510 1,520 1,528 1,536 1,538 1,542 1,546 1,552 1,603 1,604 1,622 1,623 1,657 1,660 1,664 1,689 1,696 1,704 1,709 1,763 1,771 1,782 1,783 1,788 1,790 1,801 1,805 1,806 1,807 1,823 1,826 1,835 1,851 1,875 1,909 1}
{6 1,87 1,102 1,114 1,196 1,286 1,332 1,345 1,361 1,369 1,439 1,479 1,510 1,528 1,534 1,669 1,714 1,719 1,720 1,763 1,775 1,782 1,783 1,792 1,798 1,841 1,854 1,909 1,913 1}
{4 1,6 1,32 1,37 1,39 1,43 1,51 1,55 1,56 1,57 1,59 1,61 1,66 1,82 1,83 1,87 1,97 1,103 1,114 1,115 1,123 1,142 1,174 1,204 1,228 1,251 1,260 1,270 1,271 1,279 1,284 1,286 1,300 1,338 1,361 1,365 1,369 1,377 1,388 1,391 1,404 1,409 1,431 1,433 1,441 1,449 1,453 1,468 1,472 1,473 1,474 1,491 1,493 1,495 1,509 1,517 1,518 1,528 1,536 1,538 1,541 1,552 1,563 1,567 1,601 1,618 1,625 1,657 1,695 1,699 1,703 1,709 1,721 1,748 1,751 1,760 1,763 1,779 1,782 1,783 1,788 1,790 1,796 1,807 1,859 1,869 1,872 1,883 1,895 1,909 1}
{4 1,11 1,25 1,39 1,51 1,53 1,55 1,82 1,106 1,111 1,114 1,123 1,152 1,155 1,174 1,183 1,207 1,210 1,216 1,267 1,271 1,273 1,283 1,312 1,313 1,361 1,369 1,388 1,391 1,393 1,402 1,417 1,460 1,501 1,515 1,519 1,520 1,528 1,538 1,546 1,603 1,604 1,611 1,657 1,763 1,771 1,782 1,783 1,793 1,796 1,803 1,807 1,820 1,851 1,858 1,868 1,875 1,877 1,895 1,904 1}
{14 1,39 1,240 1,294 1,536 1,538 1,657 1,765 1,782 1,783 1,796 1,821 1,854 1,903 1,906 1,913 1}
{4 1,6 1,37 1,39 1,45 1,46 1,51 1,55 1,59 1,82 1,87 1,93 1,100 1,106 1,114 1,120 1,123 1,130 1,152 1,198 1,201 1,202 1,204 1,220 1,277 1,286 1,300 1,328 1,355 1,358 1,361 1,369 1,388 1,391 1,426 1,436 1,441 1,453 1,463 1,470 1,491 1,517 1,528 1,532 1,536 1,538 1,539 1,541 1,552 1,553 1,603 1,618 1,629 1,647 1,699 1,703 1,705 1,714 1,767 1,782 1,783 1,788 1,789 1,792 1,796 1,798 1,807 1,820 1,849 1,867 1,869 1,871 1,872 1,877 1,883 1,895 1}
{4 1,24 1,39 1,45 1,46 1,54 1,91 1,121 1,122 1,172 1,228 1,244 1,271 1,275 1,277 1,286 1,293 1,311 1,321 1,328 1,329 1,335 1,339 1,357 1,361 1,369 1,388 1,399 1,433 1,497 1,501 1,515 1,518 1,528 1,581 1,607 1,638 1,657 1,682 1,690 1,693 1,697 1,714 1,725 1,772 1,783 1,785 1,790 1,792 1,795 1,798 1,809 1,826 1,859 1,865 1}
{4 1,6 1,37 1,51 1,117 1,119 1,145 1,204 1,210 1,214 1,277 1,305 1,329 1,339 1,363 1,393 1,467 1,515 1,520 1,533 1,552 1,583 1,616 1,625 1,638 1,646 1,657 1,715 1,763 1,782 1,783 1,788 1,796 1,859 1,867 1,870 1,875 1,909 1,913 1}
{6 1,338 1,357 1,528 1,538 1,594 1,807 1,911 1}
{4 1,6 1,33 1,34 1,37 1,39 1,56 1,61 1,82 1,87 1,104 1,114 1,115 1,117 1,135 1,152 1,153 1,180 1,210 1,216 1,277 1,278 1,283 1,293 1,303 1,308 1,311 1,321 1,329 1,342 1,361 1,369 1,388 1,391 1,402 1,454 1,466 1,480 1,501 1,518 1,520 1,526 1,528 1,536 1,549 1,551 1,567 1,569 1,603 1,629 1,631 1,657 1,658 1,660 1,670 1,707 1,720 1,728 1,763 1,782 1,783 1,788 1,790 1,796 1,798 1,803 1,807 1,812 1,834 1,835 1,840 1,854 1,856 1,859 1,865 1,869 1,872 1,875 1,883 1,893 1}
{82 1,114 1,369 1,388 1,417 1,468 1,476 1,497 1,567 1,572 1,660 1,715 1,782 1,783 1,785 1,796 1,807 1,820 1,865 1,875 1,902 1,913 1}
{4 1,6 1,11 1,17 1,24 1,29 1,37 1,39 1,51 1,55 1,56 1,67 1,82 1,100 1,106 1,114 1,115 1,121 1,123 1,128 1,130 1,143 1,152 1,157 1,170 1,201 1,204 1,207 1,210 1,243 1,277 1,279 1,285 1,286 1,300 1,304 1,316 1,324 1,329 1,338 1,345 1,355 1,357 1,361 1,369 1,388 1,391 1,418 1,448 1,463 1,467 1,470 1,483 1,491 1,493 1,497 1,517 1,528 1,529 1,532 1,536 1,561 1,570 1,598 1,601 1,616 1,660 1,671 1,677 1,693 1,707 1,709 1,714 1,719 1,722 1,740 1,759 1,763 1,782 1,783 1,786 1,788 1,789 1,796 1,804 1,807 1,812 1,818 1,851 1,854 1,867 1,872 1,873 1,883 1,884 1,885 1,890 1,909 1}
{4 1,6 1,16 1,29 1,34 1,37 1,39 1,43 1,45 1,47 1,51 1,56 1,61 1,82 1,85 1,87 1,114 1,115 1,123 1,128 1,137 1,149 1,152 1,171 1,204 1,208 1,210 1,216 1,228 1,242 1,243 1,258 1,271 1,277 1,283 1,295 1,300 1,305 1,311 1,312 1,317 1,328 1,329 1,342 1,361 1,363 1,365 1,369 1,388 1,391 1,429 1,437 1,453 1,454 1,455 1,456 1,457 1,474 1,491 1,495 1,497 1,501 1,509 1,515 1,518 1,519 1,521 1,528 1,529 1,536 1,539 1,541 1,548 1,549 1,552 1,554 1,567 1,580 1,597 1,629 1,630 1,657 1,658 1,668 1,695 1,700 1,702 1,703 1,709 1,714 1,725 1,728 1,752 1,754 1,763 1,776 1,779 1,782 1,783 1,788 1,790 1,792 1,796 1,802 1,803 1,807 1,811 1,828 1,846 1,863 1,867 1,872 1,875 1,877 1,883 1,893 1,906 1,909 1,911 1}
{6 1,39 1,48 1,55 1,82 1,87 1,102 1,114 1,115 1,116 1,174 1,196 1,228 1,282 1,286 1,305 1,329 1,332 1,345 1,358 1,361 1,365 1,369 1,388 1,394 1,409 1,439 1,475 1,479 1,506 1,510 1,528 1,534 1,601 1,669 1,670 1,695 1,714 1,719 1,720 1,737 1,763 1,769 1,773 1,775 1,782 1,783 1,784 1,792 1,798 1,807 1,825 1,834 1,841 1,854 1,879 1,909 1,913 1}
{4 1,39 1,51 1,55 1,74 1,83 1,100 1,114 1,118 1,139 1,217 1,228 1,241 1,298 1,300 1,309 1,332 1,345 1,351 1,361 1,369 1,381 1,388 1,389 1,391 1,409 1,497 1,499 1,505 1,518 1,525 1,528 1,567 1,570 1,578 1,601 1,635 1,647 1,657 1,692 1,695 1,706 1,714 1,746 1,757 1,763 1,782 1,783 1,793 1,807 1,812 1,829 1,838 1,849 1,859 1,887 1,909 1}
{4 1,14 1,24 1,26 1,29 1,39 1,51 1,61 1,64 1,75 1,82 1,85 1,87 1,106 1,114 1,115 1,135 1,195 1,211 1,225 1,228 1,240 1,260 1,271 1,305 1,307 1,310 1,313 1,317 1,321 1,329 1,333 1,361 1,365 1,369 1,385 1,391 1,394 1,425 1,452 1,453 1,465 1,469 1,480 1,490 1,518 1,521 1,528 1,535 1,536 1,541 1,542 1,552 1,569 1,607 1,638 1,655 1,690 1,694 1,714 1,719 1,765 1,779 1,782 1,783 1,785 1,788 1,790 1,793 1,795 1,796 1,797 1,807 1,812 1,819 1,834 1,835 1,842 1,844 1,854 1,858 1,859 1,867 1,869 1,871 1,893 1,895 1,904 1,909 1}
{4 1,6 1,37 1,51 1,117 1,119 1,145 1,204 1,210 1,214 1,277 1,305 1,329 1,339 1,363 1,393 1,399 1,467 1,515 1,520 1,533 1,552 1,583 1,616 1,625 1,638 1,646 1,657 1,715 1,763 1,782 1,783 1,788 1,796 1,859 1,867 1,870 1,875 1,909 1,913 1}
{4 1,6 1,14 1,24 1,26 1,30 1,39 1,54 1,55 1,56 1,74 1,82 1,114 1,118 1,120 1,123 1,135 1,139 1,150 1,152 1,159 1,160 1,177 1,204 1,205 1,208 1,209 1,210 1,217 1,228 1,230 1,247 1,277 1,280 1,289 1,298 1,300 1,301 1,305 1,308 1,309 1,310 1,325 1,328 1,329 1,332 1,339 1,361 1,365 1,369 1,381 1,387 1,388 1,389 1,391 1,396 1,399 1,409 1,431 1,433 1,448 1,449 1,453 1,457 1,468 1,470 1,488 1,491 1,493 1,497 1,499 1,504 1,518 1,521 1,525 1,528 1,536 1,538 1,541 1,545 1,548 1,552 1,553 1,567 1,578 1,594 1,657 1,679 1,692 1,695 1,706 1,722 1,746 1,757 1,763 1,766 1,782 1,783 1,788 1,793 1,796 1,798 1,799 1,802 1,804 1,807 1,812 1,816 1,821 1,849 1,854 1,863 1,867 1,869 1,875 1,876 1,877 1,883 1,890 1,895 1,904 1,909 1,911 1}
{4 1,5 1,6 1,11 1,26 1,32 1,34 1,39 1,43 1,46 1,51 1,55 1,56 1,61 1,82 1,85 1,87 1,88 1,111 1,112 1,114 1,123 1,148 1,152 1,154 1,161 1,162 1,166 1,167 1,168 1,171 1,174 1,183 1,191 1,195 1,196 1,199 1,204 1,208 1,210 1,216 1,228 1,235 1,236 1,238 1,239 1,242 1,243 1,262 1,267 1,271 1,277 1,283 1,286 1,300 1,304 1,305 1,307 1,328 1,329 1,331 1,342 1,361 1,363 1,369 1,386 1,388 1,389 1,391 1,392 1,393 1,407 1,409 1,422 1,425 1,426 1,433 1,435 1,439 1,470 1,489 1,497 1,501 1,503 1,515 1,516 1,518 1,519 1,520 1,521 1,528 1,529 1,536 1,537 1,538 1,541 1,548 1,549 1,552 1,553 1,554 1,565 1,567 1,569 1,597 1,605 1,615 1,616 1,618 1,622 1,623 1,629 1,630 1,631 1,647 1,651 1,655 1,657 1,658 1,667 1,673 1,679 1,703 1,709 1,714 1,716 1,720 1,721 1,723 1,728 1,746 1,753 1,755 1,761 1,763 1,765 1,768 1,779 1,782 1,783 1,785 1,788 1,790 1,791 1,792 1,796 1,802 1,803 1,804 1,807 1,809 1,812 1,822 1,836 1,840 1,849 1,854 1,858 1,859 1,861 1,863 1,865 1,867 1,869 1,870 1,872 1,875 1,877 1,879 1,883 1,885 1,890 1,893 1,895 1,904 1,909 1,911 1}
{4 1,14 1,24 1,56 1,59 1,61 1,82 1,115 1,178 1,179 1,220 1,251 1,277 1,308 1,329 1,361 1,388 1,493 1,534 1,538 1,634 1,660 1,752 1,770 1,783 1,807 1,812 1,816 1,854 1,867 1,875 1,895 1,909 1,913 1}
{4 1,24 1,37 1,39 1,51 1,55 1,56 1,61 1,74 1,82 1,90 1,115 1,117 1,118 1,123 1,124 1,129 1,138 1,139 1,168 1,184 1,201 1,204 1,207 1,210 1,217 1,218 1,228 1,234 1,241 1,242 1,277 1,286 1,298 1,301 1,309 1,325 1,336 1,357 1,361 1,365 1,369 1,372 1,381 1,388 1,391 1,399 1,409 1,425 1,442 1,474 1,476 1,493 1,497 1,499 1,516 1,528 1,538 1,552 1,557 1,578 1,580 1,625 1,627 1,630 1,682 1,692 1,703 1,706 1,709 1,716 1,752 1,757 1,763 1,764 1,779 1,782 1,783 1,786 1,788 1,790 1,796 1,801 1,807 1,810 1,812 1,818 1,846 1,867 1,870 1,872 1,883 1,894 1,900 1,909 1}
{4 1,6 1,8 1,24 1,29 1,31 1,34 1,37 1,39 1,43 1,45 1,51 1,55 1,56 1,82 1,84 1,85 1,114 1,115 1,135 1,152 1,158 1,161 1,174 1,183 1,210 1,216 1,220 1,225 1,228 1,233 1,246 1,267 1,269 1,277 1,283 1,297 1,303 1,326 1,328 1,329 1,332 1,342 1,361 1,365 1,369 1,388 1,391 1,392 1,402 1,409 1,417 1,433 1,437 1,441 1,442 1,445 1,453 1,470 1,491 1,493 1,495 1,501 1,515 1,518 1,528 1,536 1,539 1,548 1,549 1,551 1,552 1,567 1,581 1,600 1,622 1,629 1,655 1,658 1,669 1,680 1,709 1,714 1,728 1,746 1,755 1,763 1,779 1,782 1,783 1,785 1,786 1,788 1,790 1,792 1,796 1,798 1,803 1,807 1,820 1,834 1,854 1,859 1,863 1,865 1,868 1,869 1,873 1,875 1,879 1,893 1,895 1,903 1,904 1,909 1}
{4 1,14 1,27 1,39 1,51 1,55 1,56 1,78 1,82 1,83 1,92 1,116 1,122 1,135 1,210 1,228 1,240 1,243 1,259 1,277 1,282 1,301 1,304 1,310 1,329 1,345 1,358 1,365 1,369 1,388 1,394 1,411 1,423 1,427 1,464 1,475 1,495 1,502 1,515 1,518 1,524 1,528 1,538 1,539 1,548 1,576 1,601 1,625 1,647 1,657 1,660 1,670 1,695 1,709 1,737 1,763 1,773 1,782 1,783 1,790 1,797 1,807 1,825 1,834 1,854 1,867 1,879 1,883 1,903 1,909 1,913 1}
{4 1,6 1,24 1,37 1,39 1,43 1,51 1,55 1,67 1,74 1,82 1,87 1,100 1,108 1,114 1,115 1,118 1,121 1,123 1,139 1,152 1,196 1,201 1,207 1,210 1,217 1,228 1,241 1,279 1,285 1,286 1,298 1,309 1,324 1,329 1,338 1,345 1,355 1,357 1,358 1,361 1,365 1,369 1,381 1,388 1,389 1,391 1,407 1,418 1,438 1,448 1,467 1,470 1,483 1,493 1,495 1,497 1,499 1,515 1,528 1,529 1,536 1,538 1,541 1,561 1,570 1,578 1,601 1,616 1,657 1,677 1,692 1,693 1,696 1,706 1,707 1,709 1,714 1,717 1,740 1,757 1,759 1,763 1,764 1,782 1,783 1,785 1,786 1,788 1,790 1,796 1,804 1,807 1,810 1,812 1,813 1,849 1,851 1,854 1,865 1,872 1,878 1,879 1,883 1,887 1,890 1,907 1,909 1}
{9 1,12 1,45 1,60 1,65 1,92 1,107 1,166 1,179 1,207 1,234 1,244 1,303 1,384 1,409 1,498 1,500 1,509 1,523 1,525 1,538 1,555 1,568 1,598 1,657 1,725 1,756 1,807 1,827 1,832 1,834 1,835 1,854 1,893 1,903 1,909 1}
{4 1,6 1,11 1,14 1,22 1,24 1,29 1,37 1,39 1,55 1,56 1,66 1,76 1,82 1,83 1,106 1,122 1,138 1,170 1,187 1,195 1,204 1,218 1,224 1,228 1,245 1,258 1,277 1,286 1,289 1,295 1,301 1,302 1,310 1,321 1,325 1,328 1,332 1,336 1,350 1,353 1,357 1,361 1,365 1,369 1,388 1,417 1,418 1,439 1,443 1,449 1,453 1,470 1,476 1,478 1,491 1,497 1,512 1,513 1,514 1,518 1,528 1,530 1,536 1,538 1,539 1,548 1,552 1,553 1,556 1,567 1,574 1,576 1,585 1,616 1,624 1,630 1,657 1,667 1,676 1,679 1,682 1,703 1,740 1,746 1,763 1,764 1,768 1,779 1,782 1,783 1,788 1,790 1,796 1,799 1,804 1,805 1,807 1,854 1,856 1,863 1,867 1,873 1,875 1,879 1,881 1,903 1,909 1,913 1}
{4 1,24 1,26 1,30 1,37 1,39 1,46 1,51 1,55 1,74 1,77 1,82 1,85 1,114 1,118 1,124 1,139 1,157 1,195 1,201 1,207 1,210 1,217 1,228 1,247 1,250 1,260 1,277 1,280 1,298 1,309 1,328 1,329 1,361 1,368 1,369 1,381 1,383 1,388 1,391 1,402 1,463 1,468 1,473 1,491 1,493 1,499 1,515 1,518 1,528 1,536 1,565 1,578 1,601 1,627 1,648 1,672 1,692 1,696 1,706 1,709 1,748 1,757 1,763 1,779 1,782 1,783 1,784 1,788 1,792 1,793 1,796 1,807 1,812 1,818 1,820 1,842 1,859 1,867 1,870 1,877 1,883 1,890 1,909 1}
{4 1,49 1,117 1,185 1,214 1,222 1,254 1,258 1,293 1,320 1,322 1,361 1,369 1,388 1,393 1,412 1,438 1,453 1,455 1,498 1,505 1,525 1,528 1,553 1,555 1,619 1,657 1,716 1,763 1,843 1,867 1}
{4 1,6 1,11 1,15 1,22 1,24 1,26 1,31 1,37 1,39 1,43 1,51 1,54 1,55 1,56 1,61 1,62 1,66 1,67 1,70 1,72 1,76 1,82 1,85 1,87 1,88 1,91 1,92 1,94 1,95 1,97 1,110 1,114 1,115 1,123 1,157 1,170 1,177 1,180 1,181 1,186 1,195 1,196 1,199 1,204 1,208 1,210 1,228 1,243 1,247 1,260 1,267 1,270 1,271 1,272 1,277 1,286 1,292 1,305 1,308 1,310 1,313 1,315 1,317 1,319 1,321 1,322 1,328 1,329 1,332 1,344 1,345 1,347 1,349 1,353 1,356 1,357 1,359 1,361 1,365 1,369 1,388 1,391 1,398 1,402 1,409 1,411 1,416 1,417 1,423 1,426 1,427 1,428 1,433 1,438 1,442 1,443 1,444 1,449 1,450 1,453 1,454 1,457 1,463 1,467 1,468 1,469 1,471 1,478 1,487 1,491 1,495 1,506 1,514 1,518 1,519 1,521 1,524 1,528 1,533 1,536 1,538 1,539 1,541 1,548 1,550 1,561 1,569 1,570 1,584 1,585 1,586 1,600 1,601 1,615 1,618 1,624 1,629 1,631 1,647 1,650 1,655 1,656 1,657 1,667 1,676 1,679 1,680 1,702 1,709 1,714 1,716 1,737 1,740 1,744 1,746 1,752 1,755 1,763 1,779 1,782 1,783 1,784 1,785 1,786 1,788 1,789 1,790 1,791 1,792 1,793 1,796 1,797 1,798 1,799 1,800 1,804 1,807 1,823 1,834 1,835 1,836 1,841 1,844 1,849 1,854 1,856 1,859 1,867 1,869 1,875 1,877 1,879 1,883 1,887 1,890 1,894 1,895 1,903 1,904 1,909 1,913 1}
{4 1,6 1,11 1,14 1,15 1,18 1,19 1,24 1,28 1,30 1,31 1,37 1,39 1,43 1,51 1,56 1,61 1,65 1,66 1,67 1,70 1,71 1,80 1,82 1,83 1,85 1,86 1,106 1,114 1,121 1,123 1,130 1,143 1,168 1,175 1,186 1,195 1,196 1,204 1,205 1,208 1,210 1,231 1,232 1,235 1,243 1,244 1,245 1,260 1,267 1,270 1,271 1,277 1,278 1,280 1,286 1,300 1,301 1,302 1,307 1,310 1,321 1,328 1,329 1,331 1,332 1,344 1,355 1,358 1,361 1,363 1,365 1,369 1,388 1,391 1,402 1,417 1,426 1,427 1,429 1,433 1,434 1,435 1,438 1,439 1,443 1,449 1,453 1,470 1,484 1,489 1,491 1,493 1,495 1,497 1,505 1,515 1,518 1,521 1,528 1,529 1,533 1,536 1,537 1,538 1,539 1,541 1,548 1,552 1,557 1,567 1,569 1,588 1,592 1,595 1,601 1,603 1,604 1,615 1,618 1,628 1,629 1,630 1,631 1,641 1,657 1,659 1,667 1,668 1,677 1,680 1,691 1,693 1,695 1,699 1,700 1,701 1,703 1,709 1,714 1,716 1,717 1,722 1,723 1,740 1,746 1,748 1,762 1,763 1,764 1,765 1,766 1,775 1,778 1,779 1,782 1,783 1,785 1,786 1,788 1,790 1,796 1,799 1,801 1,802 1,804 1,805 1,807 1,810 1,812 1,813 1,819 1,821 1,822 1,823 1,824 1,833 1,834 1,836 1,841 1,846 1,849 1,854 1,856 1,860 1,861 1,862 1,863 1,867 1,869 1,870 1,872 1,873 1,875 1,883 1,885 1,886 1,890 1,891 1,892 1,894 1,895 1,902 1,904 1}
{6 1,9 1,12 1,39 1,56 1,60 1,65 1,92 1,106 1,107 1,123 1,166 1,179 1,247 1,303 1,361 1,369 1,377 1,384 1,392 1,409 1,420 1,495 1,498 1,500 1,505 1,509 1,523 1,525 1,538 1,555 1,568 1,591 1,614 1,652 1,657 1,725 1,756 1,807 1,827 1,832 1,834 1,835 1,893 1,903 1,909 1}
{4 1,6 1,24 1,27 1,35 1,37 1,39 1,45 1,48 1,51 1,55 1,56 1,61 1,76 1,81 1,82 1,85 1,92 1,102 1,109 1,114 1,115 1,120 1,123 1,152 1,153 1,182 1,187 1,204 1,244 1,258 1,267 1,270 1,272 1,277 1,286 1,294 1,308 1,328 1,332 1,339 1,345 1,346 1,347 1,350 1,357 1,361 1,369 1,378 1,388 1,391 1,402 1,409 1,417 1,446 1,457 1,461 1,464 1,475 1,478 1,483 1,491 1,506 1,507 1,518 1,521 1,528 1,533 1,535 1,540 1,549 1,552 1,554 1,569 1,583 1,588 1,601 1,615 1,657 1,659 1,680 1,709 1,716 1,755 1,763 1,768 1,769 1,779 1,782 1,783 1,785 1,788 1,789 1,790 1,796 1,801 1,807 1,812 1,831 1,834 1,846 1,849 1,854 1,856 1,858 1,863 1,867 1,873 1,875 1,881 1,883 1,895 1,903 1,904 1,906 1,909 1,910 1,913 1}
{4 1,29 1,32 1,37 1,39 1,43 1,51 1,54 1,56 1,58 1,61 1,65 1,82 1,83 1,91 1,99 1,103 1,114 1,121 1,122 1,123 1,130 1,136 1,164 1,166 1,168 1,169 1,182 1,183 1,196 1,197 1,204 1,205 1,210 1,213 1,232 1,239 1,243 1,259 1,269 1,275 1,276 1,277 1,286 1,300 1,301 1,302 1,306 1,307 1,308 1,321 1,328 1,329 1,332 1,335 1,336 1,344 1,345 1,358 1,361 1,363 1,369 1,386 1,388 1,391 1,409 1,437 1,457 1,458 1,470 1,478 1,488 1,491 1,497 1,515 1,517 1,518 1,520 1,525 1,528 1,529 1,534 1,536 1,538 1,539 1,541 1,552 1,553 1,562 1,567 1,615 1,630 1,635 1,657 1,660 1,687 1,709 1,714 1,716 1,763 1,766 1,775 1,782 1,783 1,784 1,788 1,789 1,790 1,791 1,793 1,796 1,799 1,807 1,818 1,819 1,828 1,837 1,841 1,846 1,849 1,852 1,854 1,857 1,859 1,869 1,870 1,872 1,875 1,877 1,879 1,883 1,887 1,894 1}
{0 1,1 1,2 1,3 1,4 1,39 1,47 1,54 1,55 1,69 1,85 1,87 1,117 1,136 1,140 1,148 1,152 1,155 1,165 1,239 1,277 1,286 1,300 1,311 1,320 1,321 1,329 1,369 1,388 1,400 1,401 1,441 1,453 1,454 1,457 1,468 1,491 1,501 1,508 1,528 1,542 1,543 1,552 1,610 1,654 1,657 1,714 1,746 1,782 1,783 1,800 1,807 1,854 1,872 1,875 1,895 1}
{4 1,6 1,14 1,19 1,29 1,39 1,41 1,61 1,72 1,81 1,82 1,91 1,115 1,123 1,173 1,182 1,207 1,209 1,213 1,223 1,295 1,300 1,330 1,349 1,361 1,388 1,391 1,433 1,449 1,454 1,491 1,495 1,528 1,536 1,577 1,588 1,655 1,659 1,695 1,704 1,745 1,763 1,770 1,779 1,782 1,783 1,788 1,791 1,793 1,812 1,834 1,859 1,869 1,875 1,883 1,909 1,911 1,913 1}
{4 1,14 1,37 1,39 1,43 1,51 1,56 1,67 1,68 1,82 1,88 1,97 1,114 1,115 1,123 1,130 1,152 1,204 1,233 1,241 1,243 1,263 1,267 1,285 1,286 1,300 1,301 1,306 1,308 1,328 1,329 1,338 1,361 1,369 1,388 1,391 1,396 1,411 1,443 1,453 1,457 1,464 1,468 1,483 1,491 1,502 1,515 1,518 1,525 1,528 1,536 1,538 1,541 1,553 1,567 1,641 1,645 1,714 1,716 1,755 1,782 1,783 1,788 1,789 1,798 1,804 1,807 1,818 1,835 1,836 1,837 1,841 1,854 1,859 1,863 1,869 1,875 1,883 1}
{4 1,32 1,39 1,45 1,46 1,57 1,65 1,68 1,82 1,91 1,114 1,134 1,158 1,168 1,207 1,238 1,249 1,277 1,361 1,365 1,369 1,388 1,391 1,409 1,455 1,464 1,468 1,497 1,518 1,528 1,580 1,605 1,657 1,714 1,781 1,782 1,783 1,786 1,796 1,807 1,879 1,883 1,895 1,909 1}
{4 1,6 1,24 1,39 1,43 1,56 1,61 1,76 1,85 1,101 1,114 1,137 1,138 1,195 1,204 1,222 1,224 1,228 1,242 1,245 1,264 1,267 1,271 1,277 1,293 1,317 1,321 1,328 1,329 1,332 1,357 1,361 1,369 1,388 1,391 1,409 1,410 1,417 1,423 1,425 1,433 1,437 1,442 1,445 1,463 1,476 1,491 1,497 1,509 1,514 1,515 1,521 1,528 1,531 1,532 1,535 1,536 1,538 1,541 1,548 1,561 1,568 1,572 1,579 1,583 1,636 1,638 1,657 1,660 1,667 1,676 1,679 1,682 1,695 1,703 1,724 1,733 1,769 1,770 1,782 1,783 1,784 1,785 1,790 1,793 1,804 1,807 1,809 1,815 1,817 1,823 1,832 1,841 1,854 1,867 1,874 1,879 1,883 1,903 1,904 1,908 1,913 1}
{4 1,6 1,24 1,29 1,36 1,37 1,39 1,41 1,45 1,47 1,51 1,56 1,61 1,65 1,67 1,77 1,82 1,91 1,103 1,104 1,114 1,115 1,116 1,121 1,123 1,126 1,135 1,152 1,153 1,168 1,169 1,204 1,207 1,208 1,210 1,214 1,229 1,242 1,245 1,253 1,270 1,277 1,278 1,286 1,296 1,300 1,305 1,308 1,320 1,329 1,339 1,361 1,369 1,370 1,380 1,386 1,388 1,391 1,407 1,416 1,433 1,434 1,437 1,438 1,449 1,457 1,468 1,470 1,475 1,491 1,493 1,495 1,496 1,497 1,498 1,515 1,518 1,528 1,529 1,536 1,538 1,539 1,541 1,549 1,553 1,561 1,567 1,570 1,615 1,626 1,628 1,635 1,642 1,657 1,662 1,680 1,681 1,687 1,702 1,703 1,704 1,714 1,720 1,731 1,739 1,751 1,752 1,758 1,762 1,763 1,775 1,782 1,783 1,785 1,787 1,788 1,789 1,790 1,792 1,793 1,796 1,802 1,804 1,807 1,818 1,819 1,824 1,834 1,836 1,846 1,854 1,859 1,867 1,869 1,870 1,872 1,875 1,878 1,879 1,883 1,885 1,887 1,890 1,893 1,895 1,907 1,909 1,911 1}
{4 1,6 1,30 1,37 1,39 1,44 1,55 1,56 1,61 1,90 1,122 1,135 1,193 1,207 1,227 1,228 1,233 1,245 1,267 1,271 1,275 1,277 1,317 1,321 1,326 1,329 1,361 1,369 1,388 1,391 1,402 1,407 1,433 1,441 1,443 1,457 1,460 1,491 1,493 1,497 1,518 1,528 1,529 1,539 1,546 1,548 1,592 1,597 1,600 1,625 1,638 1,667 1,677 1,684 1,720 1,725 1,763 1,779 1,782 1,783 1,784 1,785 1,788 1,789 1,790 1,807 1,812 1,849 1,854 1,856 1,859 1,863 1,865 1,872 1,873 1,883 1}
{4 1,6 1,14 1,19 1,29 1,37 1,39 1,41 1,42 1,43 1,61 1,72 1,73 1,81 1,82 1,91 1,115 1,123 1,172 1,173 1,181 1,207 1,209 1,213 1,223 1,228 1,244 1,295 1,300 1,330 1,349 1,361 1,369 1,388 1,391 1,433 1,449 1,453 1,454 1,491 1,495 1,510 1,518 1,528 1,533 1,536 1,538 1,539 1,541 1,577 1,588 1,616 1,655 1,657 1,659 1,695 1,704 1,745 1,763 1,770 1,779 1,782 1,783 1,787 1,788 1,791 1,793 1,796 1,812 1,826 1,834 1,859 1,869 1,875 1,883 1,898 1,909 1,911 1,913 1}
{4 1,6 1,39 1,43 1,55 1,56 1,61 1,70 1,74 1,103 1,115 1,118 1,139 1,152 1,196 1,204 1,207 1,208 1,217 1,228 1,233 1,260 1,298 1,308 1,309 1,324 1,326 1,365 1,369 1,381 1,388 1,391 1,392 1,397 1,402 1,457 1,499 1,528 1,536 1,548 1,570 1,578 1,601 1,692 1,706 1,715 1,752 1,757 1,763 1,782 1,783 1,807 1,812 1,859 1,862 1,869 1,892 1,895 1}
{6 1,24 1,39 1,43 1,55 1,115 1,123 1,158 1,210 1,227 1,228 1,233 1,246 1,297 1,357 1,361 1,365 1,369 1,391 1,392 1,402 1,437 1,457 1,470 1,528 1,534 1,536 1,551 1,552 1,581 1,655 1,709 1,763 1,782 1,783 1,785 1,786 1,807 1,834 1,909 1}
{4 1,6 1,12 1,14 1,24 1,37 1,39 1,49 1,54 1,55 1,56 1,61 1,78 1,87 1,196 1,220 1,228 1,240 1,258 1,259 1,261 1,266 1,271 1,277 1,292 1,294 1,300 1,301 1,302 1,308 1,323 1,328 1,329 1,332 1,335 1,344 1,345 1,347 1,357 1,361 1,369 1,388 1,391 1,427 1,428 1,433 1,460 1,528 1,536 1,553 1,555 1,584 1,586 1,591 1,600 1,657 1,677 1,679 1,681 1,696 1,701 1,716 1,738 1,763 1,779 1,782 1,783 1,784 1,790 1,796 1,804 1,807 1,813 1,834 1,854 1,856 1,863 1,869 1,873 1,883 1,904 1,910 1,913 1}
{39 1,51 1,55 1,74 1,80 1,90 1,101 1,114 1,118 1,128 1,139 1,157 1,171 1,217 1,228 1,298 1,309 1,321 1,361 1,369 1,381 1,388 1,391 1,399 1,402 1,493 1,499 1,521 1,528 1,538 1,548 1,578 1,625 1,635 1,638 1,647 1,692 1,706 1,757 1,782 1,783 1,788 1,793 1,796 1,800 1,807 1,812 1,823 1,842 1,863 1,865 1,867 1,877 1,906 1,909 1}
{277 1,781 1,783 1}
{4 1,14 1,45 1,48 1,55 1,61 1,82 1,102 1,206 1,286 1,328 1,329 1,332 1,353 1,361 1,369 1,439 1,453 1,469 1,506 1,528 1,536 1,538 1,583 1,647 1,656 1,695 1,783 1,790 1,796 1,807 1,863 1,875 1,883 1,897 1,913 1}
{6 1,45 1,55 1,56 1,71 1,74 1,82 1,91 1,118 1,123 1,139 1,152 1,171 1,183 1,204 1,205 1,208 1,217 1,228 1,277 1,298 1,302 1,309 1,330 1,336 1,357 1,361 1,369 1,381 1,388 1,391 1,399 1,409 1,433 1,471 1,499 1,528 1,529 1,539 1,578 1,657 1,680 1,682 1,692 1,706 1,757 1,763 1,782 1,783 1,788 1,792 1,793 1,796 1,807 1,812 1,823 1,837 1,842 1,846 1,858 1,867 1,885 1,896 1,909 1,911 1}
{4 1,6 1,11 1,30 1,39 1,43 1,45 1,47 1,51 1,54 1,55 1,56 1,82 1,86 1,121 1,134 1,152 1,172 1,193 1,195 1,210 1,216 1,228 1,232 1,244 1,253 1,275 1,276 1,328 1,329 1,335 1,353 1,361 1,369 1,377 1,391 1,399 1,433 1,452 1,453 1,486 1,510 1,528 1,536 1,538 1,540 1,548 1,550 1,691 1,709 1,725 1,754 1,763 1,782 1,783 1,785 1,789 1,790 1,791 1,792 1,793 1,795 1,798 1,803 1,804 1,807 1,826 1,828 1,832 1,835 1,854 1,859 1,869 1,875 1,879 1,883 1,895 1,896 1,909 1}
{4 1,32 1,43 1,73 1,76 1,82 1,93 1,181 1,209 1,210 1,223 1,228 1,243 1,244 1,294 1,349 1,361 1,369 1,388 1,391 1,404 1,428 1,453 1,491 1,518 1,536 1,538 1,539 1,540 1,541 1,558 1,585 1,600 1,657 1,667 1,695 1,709 1,763 1,770 1,782 1,783 1,787 1,791 1,823 1,875 1,883 1,895 1,898 1,913 1}
{6 1,39 1,53 1,55 1,56 1,74 1,82 1,108 1,114 1,115 1,118 1,123 1,139 1,152 1,207 1,217 1,228 1,237 1,243 1,277 1,298 1,309 1,329 1,361 1,369 1,381 1,388 1,391 1,499 1,510 1,515 1,518 1,528 1,557 1,563 1,578 1,657 1,692 1,706 1,752 1,757 1,763 1,768 1,782 1,783 1,796 1,800 1,807 1,812 1,858 1,859 1,873 1}
{4 1,11 1,24 1,34 1,39 1,45 1,51 1,52 1,56 1,61 1,70 1,82 1,83 1,93 1,123 1,148 1,152 1,154 1,204 1,208 1,210 1,211 1,216 1,220 1,224 1,228 1,244 1,245 1,247 1,258 1,264 1,270 1,271 1,273 1,277 1,283 1,285 1,286 1,307 1,328 1,329 1,342 1,357 1,361 1,369 1,388 1,389 1,392 1,402 1,409 1,411 1,435 1,453 1,483 1,501 1,519 1,528 1,536 1,538 1,541 1,549 1,552 1,558 1,567 1,588 1,597 1,605 1,618 1,629 1,658 1,709 1,715 1,728 1,731 1,752 1,755 1,763 1,775 1,777 1,778 1,782 1,783 1,786 1,788 1,789 1,790 1,792 1,796 1,798 1,803 1,807 1,812 1,833 1,834 1,853 1,858 1,865 1,867 1,870 1,875 1,888 1,893 1,909 1}
{4 1,5 1,39 1,43 1,55 1,72 1,82 1,228 1,277 1,305 1,306 1,329 1,344 1,361 1,369 1,428 1,439 1,449 1,520 1,552 1,657 1,667 1,670 1,676 1,782 1,807 1,909 1,913 1}
{24 1,39 1,43 1,51 1,55 1,74 1,85 1,87 1,114 1,118 1,131 1,139 1,201 1,208 1,211 1,215 1,217 1,228 1,270 1,277 1,298 1,309 1,320 1,328 1,329 1,334 1,335 1,361 1,365 1,369 1,381 1,388 1,391 1,457 1,468 1,474 1,499 1,510 1,528 1,564 1,578 1,597 1,612 1,692 1,706 1,714 1,752 1,757 1,763 1,764 1,765 1,782 1,783 1,784 1,788 1,789 1,790 1,794 1,796 1,798 1,804 1,807 1,812 1,828 1,846 1,854 1,867 1,875 1,883 1,887 1,888 1,909 1}
{4 1,18 1,29 1,39 1,56 1,88 1,107 1,115 1,155 1,265 1,267 1,293 1,320 1,365 1,401 1,453 1,527 1,555 1,573 1,663 1,714 1,783 1,804 1,807 1,904 1,909 1}
{4 1,11 1,43 1,82 1,123 1,329 1,460 1,523 1,528 1,536 1,585 1,699 1,788 1,831 1,909 1,913 1}
{4 1,8 1,24 1,51 1,55 1,74 1,82 1,118 1,139 1,171 1,204 1,210 1,217 1,228 1,233 1,298 1,309 1,320 1,329 1,369 1,381 1,387 1,388 1,391 1,402 1,464 1,495 1,499 1,528 1,541 1,552 1,578 1,651 1,692 1,706 1,709 1,720 1,757 1,763 1,783 1,807 1,812 1,827 1,841 1,909 1}
{4 1,6 1,14 1,15 1,24 1,32 1,39 1,45 1,51 1,55 1,56 1,61 1,88 1,92 1,97 1,114 1,115 1,123 1,207 1,208 1,228 1,233 1,277 1,301 1,305 1,313 1,329 1,335 1,342 1,352 1,361 1,365 1,369 1,388 1,391 1,392 1,409 1,491 1,518 1,521 1,528 1,536 1,541 1,548 1,552 1,594 1,615 1,631 1,638 1,657 1,680 1,691 1,702 1,709 1,714 1,720 1,725 1,763 1,767 1,782 1,783 1,786 1,790 1,793 1,796 1,807 1,812 1,847 1,849 1,883 1,909 1,911 1}
{4 1,37 1,39 1,54 1,87 1,114 1,210 1,277 1,295 1,308 1,349 1,357 1,388 1,389 1,528 1,577 1,676 1,733 1,763 1,783 1,817 1,831 1,858 1,913 1}
{4 1,24 1,29 1,37 1,39 1,51 1,55 1,74 1,118 1,121 1,139 1,152 1,217 1,228 1,235 1,298 1,309 1,333 1,362 1,369 1,381 1,388 1,391 1,437 1,499 1,518 1,528 1,536 1,578 1,657 1,692 1,706 1,757 1,782 1,783 1,788 1,807 1,812 1}
{4 1,15 1,29 1,39 1,46 1,55 1,61 1,75 1,82 1,85 1,86 1,88 1,106 1,114 1,115 1,123 1,166 1,168 1,204 1,211 1,225 1,226 1,228 1,258 1,269 1,271 1,277 1,286 1,288 1,300 1,305 1,307 1,321 1,329 1,333 1,344 1,361 1,365 1,369 1,388 1,391 1,394 1,399 1,402 1,425 1,433 1,452 1,454 1,460 1,464 1,465 1,468 1,480 1,490 1,495 1,501 1,508 1,518 1,521 1,528 1,536 1,541 1,542 1,552 1,553 1,588 1,597 1,607 1,625 1,652 1,655 1,656 1,657 1,665 1,690 1,694 1,695 1,697 1,707 1,714 1,725 1,746 1,763 1,782 1,783 1,784 1,785 1,790 1,796 1,797 1,807 1,809 1,812 1,819 1,822 1,828 1,834 1,835 1,843 1,844 1,854 1,859 1,864 1,865 1,871 1,881 1,883 1,895 1,907 1}
{4 1,177 1,181 1,318 1,328 1,361 1,577 1,769 1,783 1,793 1,796 1,883 1,895 1,907 1,913 1}
{6 1,11 1,37 1,39 1,53 1,55 1,74 1,82 1,83 1,114 1,115 1,118 1,123 1,139 1,152 1,204 1,217 1,228 1,298 1,309 1,329 1,361 1,365 1,369 1,381 1,388 1,391 1,428 1,470 1,499 1,515 1,518 1,528 1,541 1,578 1,692 1,696 1,698 1,706 1,757 1,763 1,775 1,782 1,783 1,790 1,796 1,807 1,812 1,834 1,867 1,875 1,895 1,909 1,911 1}
{4 1,6 1,8 1,14 1,37 1,39 1,54 1,55 1,56 1,88 1,92 1,114 1,115 1,168 1,177 1,233 1,239 1,301 1,305 1,329 1,352 1,361 1,365 1,369 1,388 1,391 1,392 1,433 1,491 1,518 1,528 1,536 1,541 1,552 1,615 1,631 1,638 1,657 1,691 1,702 1,709 1,714 1,720 1,725 1,754 1,782 1,783 1,790 1,793 1,807 1,812 1,827 1,836 1,847 1,849 1,909 1,911 1}
{4 1,7 1,37 1,43 1,45 1,51 1,55 1,71 1,82 1,83 1,127 1,131 1,160 1,190 1,218 1,228 1,310 1,332 1,345 1,361 1,365 1,369 1,402 1,403 1,464 1,468 1,497 1,518 1,521 1,630 1,672 1,682 1,741 1,783 1,807 1,831 1,879 1,913 1}
{4 1,32 1,39 1,41 1,42 1,45 1,55 1,57 1,70 1,74 1,100 1,118 1,122 1,123 1,139 1,169 1,196 1,217 1,228 1,233 1,277 1,298 1,309 1,329 1,338 1,361 1,365 1,369 1,381 1,388 1,391 1,439 1,453 1,499 1,512 1,515 1,517 1,521 1,528 1,538 1,552 1,578 1,599 1,601 1,645 1,692 1,693 1,703 1,706 1,757 1,763 1,777 1,782 1,783 1,796 1,804 1,807 1,812 1,813 1,834 1,861 1,864 1,865 1,867 1,873 1,888 1,909 1,911 1}
{4 1,11 1,39 1,45 1,82 1,85 1,154 1,228 1,265 1,277 1,285 1,286 1,308 1,326 1,328 1,361 1,369 1,380 1,391 1,478 1,483 1,528 1,541 1,552 1,623 1,642 1,667 1,779 1,783 1,788 1,797 1,812 1,817 1,831 1,854 1,865 1,870 1,877 1,883 1,888 1,893 1}
{4 1,6 1,14 1,37 1,39 1,56 1,61 1,66 1,85 1,86 1,114 1,115 1,123 1,127 1,177 1,181 1,196 1,204 1,206 1,222 1,224 1,228 1,243 1,277 1,289 1,302 1,307 1,318 1,320 1,328 1,332 1,345 1,347 1,350 1,361 1,369 1,388 1,391 1,399 1,402 1,409 1,423 1,449 1,453 1,470 1,471 1,508 1,518 1,528 1,536 1,539 1,541 1,584 1,625 1,630 1,709 1,716 1,739 1,752 1,763 1,768 1,779 1,782 1,783 1,800 1,804 1,807 1,833 1,854 1,859 1,867 1,883 1,903 1,909 1,911 1,913 1}
{4 1,11 1,24 1,37 1,39 1,43 1,51 1,55 1,56 1,65 1,74 1,82 1,88 1,118 1,121 1,128 1,129 1,139 1,201 1,204 1,207 1,210 1,217 1,228 1,234 1,277 1,298 1,309 1,361 1,369 1,377 1,381 1,388 1,389 1,391 1,409 1,412 1,433 1,463 1,468 1,495 1,499 1,518 1,528 1,536 1,545 1,552 1,578 1,587 1,692 1,695 1,706 1,757 1,763 1,782 1,783 1,796 1,807 1,812 1,872 1,879 1,885 1,895 1}
{4 1,6 1,14 1,37 1,39 1,41 1,48 1,49 1,56 1,60 1,61 1,63 1,65 1,77 1,82 1,85 1,106 1,114 1,115 1,123 1,132 1,178 1,179 1,183 1,187 1,192 1,225 1,247 1,271 1,274 1,277 1,286 1,315 1,321 1,328 1,358 1,361 1,369 1,377 1,384 1,388 1,391 1,392 1,408 1,417 1,420 1,421 1,437 1,453 1,480 1,484 1,491 1,495 1,505 1,509 1,510 1,515 1,528 1,536 1,542 1,543 1,545 1,555 1,591 1,598 1,607 1,614 1,620 1,625 1,652 1,657 1,659 1,663 1,673 1,688 1,725 1,726 1,752 1,761 1,782 1,783 1,784 1,804 1,807 1,809 1,810 1,854 1,875 1,883 1,890 1,891 1,893 1,895 1,909 1}
{4 1,6 1,24 1,39 1,45 1,56 1,61 1,114 1,123 1,181 1,204 1,207 1,222 1,228 1,235 1,243 1,245 1,286 1,328 1,329 1,361 1,369 1,388 1,391 1,402 1,409 1,423 1,437 1,442 1,453 1,469 1,470 1,497 1,518 1,528 1,536 1,538 1,539 1,657 1,716 1,752 1,779 1,782 1,783 1,796 1,798 1,828 1,867 1,909 1,910 1,911 1,913 1}
{4 1,7 1,14 1,24 1,29 1,36 1,39 1,43 1,45 1,51 1,55 1,56 1,67 1,74 1,82 1,91 1,114 1,118 1,123 1,127 1,128 1,129 1,139 1,146 1,152 1,165 1,186 1,201 1,204 1,205 1,210 1,211 1,217 1,228 1,235 1,236 1,270 1,277 1,280 1,286 1,298 1,299 1,300 1,307 1,308 1,309 1,313 1,315 1,328 1,329 1,358 1,361 1,369 1,381 1,388 1,391 1,402 1,404 1,426 1,428 1,431 1,433 1,441 1,453 1,457 1,458 1,468 1,491 1,493 1,497 1,499 1,507 1,509 1,515 1,518 1,520 1,528 1,536 1,541 1,548 1,552 1,554 1,563 1,564 1,567 1,569 1,578 1,603 1,604 1,605 1,642 1,657 1,659 1,667 1,680 1,692 1,695 1,706 1,714 1,754 1,755 1,757 1,763 1,775 1,782 1,783 1,786 1,788 1,796 1,804 1,807 1,812 1,834 1,841 1,869 1,872 1,875 1,879 1,883 1,909 1,911 1}
{4 1,6 1,15 1,24 1,29 1,37 1,39 1,43 1,51 1,61 1,71 1,82 1,83 1,93 1,94 1,111 1,112 1,114 1,115 1,123 1,158 1,159 1,166 1,178 1,191 1,199 1,204 1,222 1,242 1,244 1,246 1,249 1,250 1,269 1,277 1,286 1,299 1,300 1,302 1,308 1,311 1,328 1,329 1,339 1,357 1,361 1,363 1,369 1,388 1,391 1,392 1,402 1,409 1,420 1,425 1,463 1,480 1,491 1,493 1,495 1,505 1,506 1,518 1,520 1,521 1,528 1,532 1,536 1,545 1,552 1,608 1,609 1,629 1,630 1,667 1,668 1,681 1,696 1,701 1,714 1,725 1,747 1,749 1,763 1,764 1,766 1,782 1,783 1,784 1,786 1,788 1,789 1,790 1,793 1,796 1,798 1,807 1,809 1,824 1,834 1,837 1,847 1,852 1,864 1,867 1,870 1,883 1,890 1,895 1,909 1}
{6 1,24 1,39 1,51 1,55 1,56 1,61 1,88 1,101 1,114 1,137 1,169 1,195 1,204 1,222 1,228 1,245 1,264 1,277 1,293 1,321 1,328 1,329 1,353 1,361 1,369 1,388 1,391 1,409 1,417 1,425 1,493 1,500 1,509 1,514 1,528 1,532 1,536 1,541 1,548 1,579 1,649 1,660 1,667 1,701 1,768 1,769 1,770 1,783 1,784 1,785 1,790 1,793 1,796 1,815 1,837 1,849 1,858 1,867 1,872 1,879 1,903 1,904 1,908 1,909 1,913 1}
{4 1,6 1,39 1,46 1,51 1,55 1,74 1,85 1,114 1,118 1,123 1,135 1,139 1,141 1,209 1,210 1,214 1,217 1,228 1,277 1,286 1,298 1,300 1,309 1,315 1,328 1,357 1,361 1,365 1,369 1,381 1,386 1,388 1,391 1,402 1,404 1,409 1,453 1,457 1,477 1,499 1,528 1,541 1,578 1,579 1,580 1,588 1,600 1,613 1,617 1,625 1,627 1,632 1,642 1,647 1,678 1,679 1,692 1,706 1,709 1,755 1,757 1,763 1,775 1,783 1,785 1,788 1,789 1,790 1,807 1,812 1,834 1,846 1,858 1,865 1,869 1,870 1,883 1,890 1,892 1,909 1}
{4 1,6 1,9 1,11 1,14 1,24 1,29 1,30 1,37 1,39 1,43 1,51 1,52 1,56 1,58 1,63 1,70 1,82 1,87 1,94 1,97 1,102 1,114 1,115 1,120 1,121 1,156 1,163 1,166 1,168 1,177 1,195 1,196 1,204 1,222 1,235 1,242 1,243 1,245 1,246 1,266 1,270 1,274 1,277 1,284 1,286 1,291 1,300 1,302 1,305 1,306 1,308 1,310 1,314 1,318 1,321 1,329 1,332 1,336 1,338 1,339 1,344 1,347 1,357 1,361 1,365 1,369 1,382 1,386 1,387 1,388 1,391 1,409 1,412 1,417 1,419 1,420 1,422 1,426 1,433 1,436 1,437 1,440 1,448 1,449 1,451 1,452 1,457 1,468 1,469 1,475 1,478 1,484 1,491 1,493 1,495 1,497 1,501 1,509 1,516 1,518 1,528 1,529 1,536 1,539 1,541 1,542 1,545 1,551 1,552 1,553 1,558 1,567 1,573 1,596 1,597 1,600 1,603 1,611 1,617 1,630 1,645 1,659 1,663 1,664 1,679 1,689 1,693 1,699 1,703 1,704 1,709 1,712 1,714 1,716 1,725 1,736 1,737 1,740 1,741 1,746 1,755 1,763 1,764 1,782 1,783 1,785 1,786 1,788 1,789 1,790 1,791 1,792 1,796 1,798 1,804 1,807 1,813 1,818 1,819 1,823 1,834 1,835 1,847 1,849 1,852 1,853 1,854 1,855 1,859 1,860 1,863 1,865 1,867 1,869 1,872 1,875 1,883 1,895 1}
{39 1,73 1,178 1,299 1,359 1,807 1,834 1,835 1,913 1}
{4 1,39 1,51 1,55 1,61 1,74 1,82 1,115 1,118 1,139 1,152 1,170 1,186 1,201 1,217 1,228 1,234 1,247 1,277 1,298 1,308 1,309 1,313 1,329 1,354 1,361 1,365 1,369 1,381 1,388 1,391 1,399 1,409 1,439 1,471 1,499 1,525 1,528 1,536 1,541 1,578 1,625 1,647 1,685 1,692 1,706 1,757 1,782 1,783 1,785 1,789 1,790 1,793 1,807 1,812 1,818 1,861 1,871 1,875 1,879 1,909 1,911 1}
{4 1,9 1,14 1,21 1,23 1,24 1,29 1,39 1,48 1,52 1,55 1,56 1,61 1,82 1,86 1,92 1,114 1,115 1,122 1,123 1,132 1,137 1,152 1,170 1,195 1,196 1,198 1,200 1,204 1,210 1,211 1,224 1,228 1,243 1,258 1,271 1,273 1,277 1,278 1,286 1,293 1,299 1,303 1,311 1,321 1,324 1,328 1,329 1,357 1,361 1,365 1,369 1,382 1,383 1,387 1,388 1,391 1,407 1,439 1,442 1,449 1,453 1,457 1,470 1,480 1,482 1,491 1,493 1,495 1,501 1,505 1,515 1,521 1,522 1,528 1,536 1,538 1,541 1,551 1,562 1,569 1,616 1,619 1,637 1,642 1,645 1,646 1,657 1,666 1,677 1,696 1,714 1,715 1,716 1,725 1,728 1,763 1,777 1,779 1,782 1,783 1,784 1,785 1,789 1,790 1,792 1,793 1,796 1,798 1,799 1,807 1,820 1,834 1,835 1,837 1,846 1,854 1,859 1,865 1,867 1,869 1,879 1,883 1,890 1,893 1,897 1,900 1,909 1,911 1}
{8 1,117 1,122 1,171 1,226 1,271 1,277 1,286 1,307 1,329 1,361 1,369 1,388 1,391 1,439 1,498 1,512 1,514 1,528 1,567 1,593 1,657 1,686 1,695 1,770 1,783 1,796 1,807 1,831 1,834 1,860 1,870 1,875 1,883 1,913 1}
{4 1,36 1,39 1,43 1,54 1,55 1,74 1,80 1,91 1,115 1,118 1,123 1,138 1,139 1,159 1,207 1,215 1,217 1,228 1,298 1,300 1,302 1,309 1,311 1,332 1,344 1,345 1,369 1,381 1,388 1,391 1,392 1,402 1,441 1,449 1,499 1,501 1,515 1,518 1,528 1,536 1,538 1,578 1,668 1,692 1,694 1,706 1,709 1,745 1,757 1,763 1,782 1,783 1,788 1,807 1,812 1,858 1,883 1,885 1,887 1,892 1,903 1}
{4 1,19 1,30 1,39 1,51 1,55 1,70 1,90 1,123 1,135 1,152 1,154 1,210 1,228 1,243 1,244 1,270 1,275 1,326 1,361 1,369 1,388 1,391 1,491 1,493 1,497 1,518 1,528 1,539 1,540 1,597 1,600 1,633 1,638 1,667 1,677 1,720 1,725 1,761 1,763 1,779 1,782 1,783 1,784 1,791 1,793 1,796 1,798 1,807 1,813 1,849 1,854 1,883 1,909 1,911 1}
{4 1,14 1,15 1,22 1,24 1,31 1,39 1,41 1,43 1,51 1,54 1,61 1,62 1,73 1,76 1,82 1,83 1,84 1,86 1,91 1,92 1,101 1,105 1,109 1,114 1,115 1,119 1,136 1,141 1,145 1,151 1,168 1,173 1,177 1,181 1,182 1,203 1,204 1,206 1,210 1,262 1,270 1,271 1,277 1,282 1,301 1,308 1,329 1,339 1,356 1,361 1,365 1,369 1,383 1,388 1,391 1,402 1,404 1,405 1,409 1,425 1,433 1,453 1,462 1,469 1,470 1,476 1,478 1,491 1,492 1,493 1,495 1,497 1,509 1,514 1,515 1,518 1,528 1,530 1,539 1,541 1,561 1,571 1,572 1,576 1,577 1,579 1,585 1,592 1,593 1,601 1,625 1,635 1,636 1,657 1,659 1,661 1,675 1,679 1,680 1,686 1,695 1,703 1,714 1,719 1,724 1,734 1,746 1,763 1,764 1,769 1,770 1,779 1,782 1,783 1,785 1,790 1,796 1,797 1,798 1,800 1,807 1,815 1,834 1,854 1,865 1,866 1,867 1,874 1,877 1,879 1,880 1,883 1,887 1,893 1,895 1,901 1,903 1,906 1,908 1,910 1,913 1}
{43 1,55 1,56 1,74 1,118 1,123 1,130 1,135 1,139 1,217 1,228 1,298 1,309 1,361 1,369 1,381 1,388 1,391 1,401 1,453 1,495 1,499 1,518 1,528 1,578 1,627 1,692 1,706 1,709 1,714 1,755 1,757 1,766 1,782 1,783 1,807 1,812 1,835 1}
{4 1,6 1,29 1,39 1,54 1,55 1,69 1,82 1,85 1,86 1,87 1,114 1,155 1,168 1,177 1,196 1,209 1,210 1,239 1,267 1,270 1,271 1,277 1,286 1,300 1,308 1,311 1,317 1,329 1,354 1,357 1,361 1,364 1,365 1,366 1,369 1,388 1,391 1,400 1,401 1,409 1,412 1,427 1,432 1,441 1,457 1,468 1,486 1,501 1,504 1,528 1,536 1,542 1,543 1,548 1,600 1,629 1,654 1,657 1,709 1,714 1,715 1,731 1,746 1,763 1,782 1,783 1,788 1,790 1,800 1,804 1,807 1,854 1,859 1,867 1,869 1,870 1,872 1,879 1,883 1,884 1,885 1,891 1}
{4 1,25 1,152 1,182 1,200 1,210 1,277 1,305 1,361 1,388 1,402 1,417 1,436 1,437 1,469 1,489 1,505 1,507 1,536 1,541 1,570 1,615 1,638 1,682 1,686 1,779 1,783 1,846 1,893 1,903 1,913 1}
{4 1,39 1,43 1,51 1,55 1,56 1,72 1,74 1,93 1,118 1,123 1,139 1,152 1,217 1,218 1,228 1,239 1,257 1,259 1,286 1,298 1,300 1,302 1,309 1,329 1,347 1,361 1,369 1,381 1,388 1,391 1,402 1,441 1,497 1,499 1,518 1,528 1,541 1,559 1,567 1,578 1,583 1,617 1,646 1,679 1,692 1,706 1,714 1,757 1,783 1,788 1,807 1,812 1,823 1,854 1,863 1,869 1,879 1,893 1,909 1,911 1}
{4 1,6 1,14 1,39 1,47 1,82 1,87 1,93 1,115 1,239 1,277 1,286 1,288 1,290 1,299 1,312 1,342 1,369 1,402 1,457 1,509 1,528 1,606 1,609 1,625 1,658 1,661 1,783 1,786 1,805 1,807 1,835 1,840 1,879 1,883 1,899 1,908 1}
{4 1,6 1,7 1,16 1,17 1,24 1,29 1,32 1,37 1,39 1,41 1,46 1,51 1,53 1,56 1,61 1,66 1,70 1,75 1,81 1,82 1,83 1,87 1,88 1,92 1,93 1,94 1,109 1,112 1,114 1,115 1,120 1,123 1,130 1,136 1,152 1,168 1,169 1,170 1,176 1,181 1,182 1,188 1,195 1,198 1,204 1,207 1,210 1,211 1,213 1,222 1,241 1,243 1,245 1,253 1,264 1,267 1,268 1,271 1,277 1,282 1,286 1,292 1,295 1,300 1,301 1,304 1,308 1,328 1,329 1,330 1,331 1,332 1,336 1,344 1,345 1,347 1,349 1,350 1,357 1,358 1,361 1,365 1,369 1,377 1,386 1,388 1,389 1,391 1,397 1,402 1,409 1,417 1,423 1,425 1,429 1,433 1,434 1,439 1,446 1,450 1,453 1,457 1,464 1,469 1,470 1,478 1,482 1,491 1,493 1,495 1,497 1,505 1,507 1,508 1,515 1,518 1,521 1,524 1,528 1,534 1,535 1,536 1,538 1,539 1,541 1,548 1,552 1,553 1,560 1,567 1,576 1,583 1,584 1,585 1,586 1,588 1,600 1,601 1,616 1,623 1,625 1,629 1,630 1,656 1,657 1,660 1,667 1,676 1,679 1,683 1,695 1,700 1,709 1,713 1,714 1,716 1,721 1,733 1,739 1,744 1,752 1,763 1,764 1,767 1,768 1,779 1,782 1,783 1,784 1,786 1,788 1,790 1,793 1,795 1,796 1,797 1,798 1,804 1,807 1,817 1,823 1,829 1,833 1,834 1,849 1,854 1,858 1,859 1,863 1,865 1,867 1,869 1,871 1,875 1,877 1,879 1,883 1,887 1,890 1,896 1,903 1,906 1,909 1,911 1,913 1}
{55 1,74 1,118 1,139 1,217 1,219 1,228 1,277 1,298 1,309 1,361 1,369 1,381 1,388 1,391 1,402 1,499 1,510 1,528 1,539 1,578 1,692 1,706 1,709 1,728 1,757 1,783 1,807 1,812 1,853 1,854 1,867 1,909 1}
{4 1,24 1,26 1,37 1,39 1,43 1,45 1,47 1,51 1,55 1,61 1,77 1,83 1,85 1,88 1,93 1,95 1,114 1,117 1,121 1,122 1,150 1,170 1,199 1,207 1,218 1,220 1,249 1,270 1,277 1,286 1,293 1,299 1,321 1,329 1,332 1,344 1,345 1,361 1,363 1,365 1,369 1,376 1,388 1,391 1,392 1,393 1,409 1,454 1,466 1,493 1,497 1,504 1,515 1,518 1,520 1,521 1,524 1,528 1,536 1,538 1,540 1,541 1,542 1,548 1,554 1,570 1,581 1,592 1,623 1,625 1,644 1,657 1,660 1,690 1,695 1,703 1,707 1,709 1,720 1,725 1,729 1,753 1,779 1,782 1,783 1,787 1,788 1,791 1,796 1,805 1,807 1,823 1,833 1,836 1,840 1,844 1,854 1,865 1,870 1,875 1,883 1,909 1}
{4 1,6 1,7 1,29 1,32 1,39 1,43 1,51 1,53 1,55 1,56 1,61 1,62 1,66 1,82 1,83 1,87 1,88 1,92 1,101 1,109 1,113 1,114 1,123 1,129 1,136 1,152 1,162 1,168 1,181 1,187 1,188 1,199 1,204 1,207 1,208 1,210 1,222 1,228 1,229 1,232 1,233 1,240 1,241 1,243 1,244 1,264 1,266 1,277 1,286 1,300 1,306 1,308 1,321 1,328 1,329 1,332 1,344 1,347 1,357 1,361 1,365 1,369 1,379 1,382 1,388 1,391 1,402 1,409 1,425 1,429 1,446 1,449 1,453 1,454 1,457 1,464 1,468 1,470 1,471 1,488 1,491 1,495 1,496 1,502 1,507 1,509 1,515 1,518 1,528 1,529 1,532 1,536 1,538 1,539 1,541 1,548 1,549 1,569 1,576 1,578 1,583 1,584 1,585 1,586 1,587 1,590 1,591 1,596 1,599 1,629 1,630 1,632 1,634 1,636 1,655 1,657 1,660 1,677 1,679 1,684 1,694 1,709 1,714 1,716 1,719 1,720 1,738 1,752 1,763 1,764 1,769 1,775 1,779 1,782 1,783 1,784 1,785 1,788 1,790 1,793 1,796 1,807 1,812 1,823 1,852 1,854 1,858 1,859 1,863 1,867 1,869 1,875 1,879 1,883 1,895 1,903 1,904 1,909 1,910 1,911 1,913 1}
{4 1,37 1,39 1,43 1,55 1,56 1,61 1,74 1,118 1,139 1,152 1,153 1,177 1,217 1,228 1,249 1,263 1,277 1,298 1,309 1,329 1,361 1,365 1,369 1,381 1,388 1,391 1,402 1,417 1,425 1,453 1,454 1,455 1,470 1,499 1,528 1,536 1,541 1,578 1,617 1,657 1,682 1,691 1,692 1,706 1,715 1,740 1,751 1,753 1,755 1,757 1,783 1,788 1,796 1,805 1,807 1,812 1,834 1,867 1,873 1,891 1,895 1,903 1}
{4 1,5 1,14 1,26 1,29 1,37 1,39 1,43 1,45 1,51 1,55 1,56 1,79 1,82 1,87 1,88 1,94 1,112 1,114 1,148 1,152 1,154 1,167 1,168 1,171 1,187 1,191 1,199 1,204 1,207 1,208 1,216 1,228 1,235 1,242 1,243 1,244 1,267 1,271 1,277 1,283 1,300 1,304 1,307 1,328 1,329 1,331 1,336 1,357 1,361 1,363 1,365 1,369 1,386 1,388 1,389 1,391 1,392 1,393 1,409 1,433 1,439 1,457 1,468 1,469 1,470 1,473 1,491 1,503 1,518 1,528 1,529 1,536 1,537 1,538 1,539 1,541 1,548 1,552 1,554 1,559 1,565 1,589 1,597 1,605 1,607 1,615 1,618 1,629 1,630 1,631 1,642 1,651 1,655 1,657 1,679 1,695 1,708 1,709 1,715 1,721 1,746 1,753 1,754 1,755 1,763 1,765 1,771 1,772 1,782 1,783 1,785 1,786 1,788 1,792 1,793 1,796 1,802 1,803 1,807 1,812 1,859 1,863 1,865 1,869 1,875 1,877 1,879 1,883 1,890 1,895 1,909 1,911 1}
{0 1,1 1,2 1,33 1,39 1,49 1,62 1,73 1,90 1,101 1,105 1,109 1,119 1,141 1,145 1,151 1,173 1,206 1,228 1,277 1,353 1,356 1,372 1,417 1,423 1,448 1,476 1,502 1,509 1,571 1,572 1,579 1,635 1,636 1,657 1,661 1,724 1,734 1,815 1,866 1,874 1,887 1,901 1,908 1,913 1}
{4 1,18 1,24 1,32 1,37 1,39 1,43 1,55 1,56 1,61 1,82 1,83 1,100 1,114 1,115 1,123 1,134 1,183 1,201 1,228 1,267 1,277 1,280 1,286 1,318 1,334 1,336 1,344 1,345 1,361 1,363 1,369 1,388 1,391 1,439 1,441 1,457 1,463 1,470 1,473 1,497 1,510 1,528 1,536 1,538 1,539 1,552 1,553 1,563 1,580 1,612 1,648 1,691 1,694 1,698 1,730 1,741 1,782 1,783 1,788 1,789 1,796 1,804 1,807 1,818 1,819 1,835 1,849 1,854 1,865 1,875 1,879 1,904 1}
{4 1,21 1,24 1,39 1,55 1,61 1,114 1,115 1,123 1,196 1,204 1,271 1,273 1,277 1,278 1,303 1,311 1,324 1,329 1,357 1,361 1,369 1,407 1,439 1,457 1,471 1,480 1,482 1,493 1,495 1,501 1,528 1,536 1,538 1,541 1,551 1,677 1,696 1,716 1,763 1,777 1,782 1,783 1,785 1,788 1,790 1,792 1,798 1,800 1,807 1,816 1,835 1,854 1,859 1,865 1,867 1,900 1,909 1}
{4 1,15 1,37 1,39 1,41 1,56 1,70 1,72 1,88 1,109 1,114 1,148 1,173 1,206 1,257 1,268 1,271 1,277 1,289 1,300 1,305 1,308 1,310 1,329 1,332 1,344 1,345 1,347 1,350 1,361 1,365 1,369 1,388 1,391 1,443 1,449 1,453 1,518 1,519 1,521 1,528 1,529 1,539 1,553 1,597 1,624 1,647 1,655 1,675 1,695 1,704 1,739 1,755 1,783 1,785 1,793 1,796 1,807 1,854 1,863 1,872 1,883 1,895 1,903 1,913 1}
{4 1,37 1,55 1,61 1,74 1,82 1,100 1,114 1,117 1,118 1,139 1,142 1,168 1,217 1,228 1,229 1,298 1,309 1,369 1,381 1,388 1,391 1,470 1,499 1,518 1,528 1,563 1,578 1,587 1,599 1,601 1,692 1,706 1,715 1,757 1,775 1,782 1,783 1,807 1,812 1,849 1,867 1,883 1,895 1}
{4 1,46 1,53 1,56 1,71 1,82 1,128 1,177 1,192 1,210 1,239 1,275 1,329 1,361 1,369 1,451 1,468 1,493 1,501 1,528 1,606 1,709 1,725 1,763 1,782 1,783 1,788 1,790 1,793 1,807 1,865 1,876 1,893 1}
{4 1,14 1,15 1,28 1,39 1,51 1,53 1,55 1,56 1,67 1,76 1,82 1,83 1,87 1,94 1,95 1,123 1,127 1,152 1,160 1,170 1,180 1,196 1,204 1,208 1,210 1,228 1,237 1,239 1,271 1,277 1,300 1,301 1,302 1,329 1,332 1,344 1,345 1,357 1,361 1,365 1,369 1,388 1,396 1,402 1,409 1,418 1,424 1,449 1,459 1,463 1,477 1,481 1,488 1,491 1,493 1,495 1,497 1,504 1,518 1,520 1,524 1,528 1,532 1,536 1,538 1,539 1,541 1,552 1,585 1,603 1,615 1,629 1,631 1,657 1,667 1,670 1,709 1,714 1,739 1,746 1,753 1,763 1,764 1,769 1,779 1,782 1,783 1,784 1,785 1,788 1,789 1,790 1,793 1,807 1,829 1,834 1,841 1,867 1,869 1,875 1,879 1,880 1,883 1,885 1,891 1,896 1,909 1,911 1,913 1}
{39 1,54 1,55 1,74 1,118 1,139 1,152 1,210 1,217 1,228 1,298 1,309 1,332 1,365 1,369 1,381 1,388 1,391 1,396 1,402 1,433 1,458 1,470 1,497 1,499 1,518 1,521 1,528 1,552 1,578 1,692 1,706 1,757 1,763 1,782 1,783 1,807 1,812 1,852 1,854 1,909 1}
{4 1,24 1,32 1,39 1,52 1,56 1,61 1,67 1,114 1,123 1,277 1,286 1,305 1,328 1,329 1,337 1,339 1,342 1,357 1,361 1,365 1,386 1,388 1,391 1,433 1,491 1,504 1,515 1,528 1,541 1,580 1,597 1,709 1,731 1,755 1,782 1,783 1,786 1,789 1,790 1,796 1,807 1,829 1,847 1,870 1,909 1}
{123 1,177 1,222 1,361 1,365 1,433 1,436 1,455 1,470 1,538 1,587 1,715 1,724 1,781 1,783 1,807 1,874 1,913 1}
{43 1,55 1,61 1,70 1,74 1,75 1,118 1,123 1,139 1,152 1,210 1,217 1,228 1,277 1,298 1,309 1,326 1,329 1,361 1,365 1,369 1,381 1,388 1,391 1,437 1,439 1,497 1,499 1,518 1,521 1,528 1,536 1,539 1,548 1,578 1,692 1,706 1,757 1,763 1,780 1,782 1,783 1,788 1,807 1,812 1,821 1,852 1,909 1,911 1}
{6 1,23 1,32 1,34 1,39 1,152 1,184 1,204 1,210 1,216 1,228 1,277 1,283 1,329 1,361 1,369 1,388 1,391 1,409 1,495 1,501 1,518 1,522 1,529 1,536 1,541 1,549 1,567 1,629 1,658 1,660 1,703 1,716 1,728 1,752 1,763 1,764 1,782 1,783 1,790 1,791 1,793 1,803 1,807 1,875 1,877 1,893 1,900 1,909 1}
{4 1,39 1,82 1,101 1,241 1,277 1,361 1,365 1,369 1,388 1,391 1,454 1,488 1,491 1,509 1,516 1,518 1,528 1,538 1,570 1,625 1,649 1,657 1,695 1,782 1,783 1,807 1,873 1,875 1,883 1,913 1}
{6 1,19 1,29 1,39 1,55 1,56 1,61 1,74 1,108 1,114 1,118 1,139 1,152 1,153 1,177 1,205 1,210 1,213 1,217 1,228 1,277 1,286 1,298 1,307 1,308 1,309 1,313 1,329 1,345 1,353 1,354 1,361 1,369 1,381 1,388 1,391 1,433 1,435 1,440 1,453 1,459 1,473 1,482 1,491 1,499 1,505 1,518 1,528 1,531 1,552 1,567 1,578 1,603 1,623 1,679 1,692 1,706 1,714 1,755 1,757 1,761 1,763 1,764 1,768 1,779 1,782 1,783 1,784 1,785 1,790 1,793 1,804 1,807 1,812 1,849 1,858 1,859 1,867 1,875 1,879 1,883 1}
{4 1,6 1,9 1,29 1,31 1,34 1,36 1,39 1,43 1,51 1,53 1,55 1,56 1,61 1,82 1,86 1,97 1,111 1,113 1,114 1,123 1,152 1,174 1,176 1,177 1,187 1,195 1,200 1,204 1,207 1,209 1,210 1,216 1,239 1,246 1,251 1,252 1,267 1,270 1,277 1,283 1,290 1,305 1,312 1,313 1,329 1,331 1,361 1,369 1,371 1,388 1,391 1,393 1,402 1,409 1,433 1,449 1,450 1,457 1,467 1,483 1,488 1,495 1,501 1,506 1,512 1,515 1,518 1,521 1,528 1,536 1,538 1,545 1,548 1,549 1,562 1,567 1,594 1,600 1,611 1,616 1,628 1,629 1,631 1,648 1,657 1,658 1,669 1,679 1,691 1,695 1,703 1,716 1,722 1,725 1,728 1,743 1,752 1,755 1,763 1,782 1,783 1,785 1,790 1,791 1,793 1,796 1,803 1,804 1,807 1,821 1,834 1,855 1,858 1,860 1,865 1,867 1,869 1,872 1,875 1,877 1,883 1,890 1,893 1,895 1,903 1,906 1,909 1,911 1}
{4 1,13 1,39 1,45 1,51 1,82 1,105 1,168 1,190 1,234 1,258 1,269 1,277 1,286 1,327 1,361 1,365 1,391 1,393 1,402 1,436 1,444 1,453 1,455 1,470 1,473 1,477 1,528 1,538 1,552 1,601 1,657 1,783 1,790 1,807 1,895 1,909 1,913 1}
{43 1,55 1,74 1,118 1,123 1,129 1,139 1,215 1,217 1,222 1,228 1,277 1,298 1,309 1,342 1,369 1,381 1,388 1,391 1,399 1,499 1,528 1,536 1,578 1,692 1,706 1,714 1,757 1,783 1,807 1,812 1,836 1,838 1}
{0 1,1 1,2 1,3 1,4 1,6 1,9 1,39 1,54 1,55 1,69 1,77 1,82 1,85 1,87 1,114 1,115 1,117 1,122 1,152 1,155 1,165 1,195 1,199 1,200 1,211 1,213 1,225 1,239 1,277 1,286 1,311 1,329 1,336 1,361 1,365 1,366 1,369 1,388 1,391 1,400 1,401 1,412 1,436 1,439 1,441 1,453 1,457 1,468 1,491 1,495 1,501 1,506 1,508 1,518 1,528 1,542 1,543 1,553 1,562 1,601 1,610 1,654 1,657 1,714 1,746 1,755 1,763 1,782 1,783 1,786 1,790 1,807 1,812 1,823 1,854 1,859 1,867 1,869 1,872 1,883 1,887 1}
{4 1,15 1,17 1,18 1,32 1,39 1,51 1,52 1,61 1,70 1,82 1,92 1,95 1,114 1,160 1,177 1,228 1,234 1,262 1,267 1,277 1,279 1,286 1,300 1,302 1,304 1,308 1,313 1,320 1,329 1,332 1,339 1,344 1,345 1,353 1,361 1,365 1,369 1,377 1,386 1,388 1,402 1,409 1,417 1,433 1,445 1,468 1,518 1,519 1,521 1,528 1,531 1,538 1,541 1,583 1,624 1,656 1,657 1,666 1,676 1,679 1,764 1,769 1,771 1,772 1,781 1,782 1,783 1,796 1,798 1,804 1,807 1,854 1,859 1,869 1,875 1,879 1,883 1,903 1,909 1,913 1}
{4 1,6 1,28 1,37 1,39 1,51 1,55 1,56 1,61 1,74 1,82 1,114 1,118 1,123 1,139 1,152 1,170 1,177 1,211 1,217 1,228 1,230 1,241 1,286 1,298 1,309 1,329 1,357 1,361 1,369 1,381 1,388 1,389 1,391 1,404 1,433 1,439 1,441 1,491 1,493 1,499 1,508 1,528 1,536 1,539 1,578 1,627 1,643 1,692 1,695 1,706 1,752 1,757 1,759 1,763 1,776 1,782 1,783 1,788 1,807 1,812 1,834 1,835 1,867 1,883 1,886 1,909 1,911 1}
{4 1,6 1,8 1,39 1,43 1,55 1,62 1,86 1,123 1,227 1,297 1,300 1,357 1,361 1,365 1,369 1,380 1,385 1,391 1,404 1,434 1,441 1,457 1,491 1,528 1,534 1,655 1,695 1,709 1,736 1,755 1,772 1,782 1,783 1,785 1,786 1,807 1,834 1,840 1,842 1,859 1,877 1,879 1,895 1,909 1}
{4 1,7 1,37 1,39 1,42 1,45 1,51 1,55 1,61 1,76 1,82 1,87 1,97 1,117 1,152 1,160 1,168 1,224 1,228 1,261 1,265 1,277 1,305 1,353 1,361 1,365 1,369 1,388 1,391 1,409 1,470 1,475 1,497 1,498 1,502 1,528 1,536 1,541 1,583 1,657 1,734 1,762 1,782 1,783 1,807 1,809 1,812 1,871 1,879 1,888 1,895 1,913 1}
{4 1,39 1,55 1,74 1,82 1,118 1,139 1,197 1,217 1,228 1,292 1,298 1,300 1,304 1,308 1,309 1,365 1,369 1,381 1,388 1,391 1,468 1,499 1,528 1,529 1,539 1,578 1,642 1,692 1,706 1,757 1,776 1,783 1,784 1,807 1,812 1,838 1,842 1,872 1,879 1,890 1,895 1}
{4 1,7 1,14 1,29 1,37 1,39 1,49 1,51 1,56 1,58 1,61 1,65 1,82 1,96 1,115 1,123 1,132 1,162 1,166 1,167 1,168 1,170 1,194 1,207 1,214 1,223 1,235 1,245 1,250 1,255 1,274 1,277 1,286 1,289 1,292 1,300 1,320 1,329 1,332 1,342 1,354 1,358 1,361 1,369 1,371 1,375 1,377 1,384 1,388 1,391 1,395 1,399 1,405 1,451 1,457 1,463 1,496 1,501 1,502 1,509 1,512 1,518 1,528 1,531 1,536 1,538 1,548 1,553 1,591 1,605 1,607 1,621 1,642 1,643 1,644 1,657 1,659 1,671 1,672 1,695 1,709 1,725 1,742 1,743 1,762 1,769 1,772 1,782 1,783 1,784 1,790 1,796 1,801 1,802 1,807 1,809 1,816 1,825 1,828 1,830 1,831 1,836 1,837 1,846 1,863 1,866 1,872 1,873 1,879 1,884 1,895 1,903 1,904 1}
{4 1,39 1,43 1,51 1,55 1,56 1,88 1,114 1,123 1,125 1,152 1,182 1,190 1,204 1,210 1,213 1,228 1,239 1,277 1,300 1,318 1,321 1,332 1,361 1,365 1,369 1,388 1,391 1,402 1,404 1,417 1,436 1,437 1,469 1,489 1,496 1,505 1,507 1,509 1,515 1,518 1,521 1,523 1,528 1,532 1,535 1,536 1,541 1,552 1,570 1,580 1,584 1,585 1,587 1,615 1,623 1,625 1,638 1,655 1,657 1,682 1,715 1,746 1,763 1,779 1,782 1,783 1,788 1,807 1,823 1,846 1,852 1,854 1,859 1,875 1,903 1,909 1,911 1,913 1}
{4 1,6 1,15 1,24 1,31 1,32 1,39 1,41 1,42 1,43 1,51 1,55 1,56 1,57 1,61 1,70 1,74 1,82 1,83 1,92 1,97 1,114 1,118 1,123 1,130 1,139 1,153 1,157 1,160 1,168 1,177 1,196 1,204 1,210 1,215 1,217 1,228 1,229 1,243 1,244 1,245 1,247 1,267 1,277 1,280 1,286 1,298 1,300 1,302 1,305 1,307 1,309 1,322 1,329 1,339 1,344 1,352 1,361 1,365 1,369 1,377 1,381 1,387 1,388 1,389 1,391 1,416 1,433 1,453 1,457 1,463 1,468 1,470 1,491 1,493 1,495 1,499 1,506 1,510 1,512 1,515 1,518 1,528 1,529 1,536 1,538 1,541 1,552 1,553 1,559 1,563 1,564 1,567 1,578 1,580 1,601 1,603 1,609 1,611 1,617 1,618 1,627 1,629 1,630 1,631 1,639 1,640 1,642 1,657 1,692 1,695 1,699 1,701 1,706 1,709 1,714 1,715 1,716 1,717 1,752 1,755 1,757 1,761 1,763 1,764 1,775 1,782 1,783 1,784 1,785 1,786 1,788 1,790 1,792 1,793 1,796 1,800 1,804 1,807 1,812 1,822 1,829 1,834 1,838 1,841 1,849 1,852 1,854 1,858 1,859 1,863 1,865 1,867 1,869 1,870 1,875 1,877 1,879 1,883 1,885 1,887 1,895 1,896 1,909 1}
{4 1,9 1,21 1,24 1,39 1,48 1,51 1,55 1,61 1,92 1,114 1,115 1,123 1,152 1,164 1,170 1,196 1,200 1,204 1,210 1,258 1,273 1,277 1,278 1,303 1,311 1,324 1,329 1,361 1,369 1,388 1,407 1,425 1,450 1,457 1,471 1,480 1,482 1,493 1,495 1,501 1,515 1,528 1,536 1,538 1,541 1,545 1,551 1,562 1,626 1,642 1,643 1,677 1,703 1,716 1,728 1,763 1,777 1,779 1,783 1,785 1,788 1,790 1,792 1,798 1,800 1,807 1,816 1,834 1,835 1,854 1,859 1,865 1,867 1,900 1,909 1,911 1}
{43 1,55 1,82 1,88 1,114 1,131 1,176 1,207 1,213 1,228 1,310 1,332 1,361 1,365 1,369 1,409 1,575 1,636 1,685 1,783 1,807 1,836 1,854 1,883 1,913 1}
{18 1,20 1,32 1,39 1,55 1,56 1,74 1,82 1,83 1,118 1,123 1,134 1,139 1,201 1,217 1,228 1,277 1,280 1,286 1,298 1,309 1,361 1,369 1,381 1,388 1,391 1,408 1,463 1,473 1,499 1,518 1,528 1,535 1,538 1,539 1,552 1,578 1,692 1,706 1,730 1,741 1,757 1,782 1,783 1,789 1,793 1,796 1,807 1,812 1,835 1,842 1,849 1,854 1,904 1}
{4 1,6 1,9 1,14 1,24 1,28 1,31 1,37 1,39 1,43 1,51 1,55 1,56 1,58 1,61 1,65 1,82 1,83 1,85 1,114 1,116 1,123 1,128 1,152 1,168 1,174 1,177 1,195 1,200 1,207 1,210 1,224 1,243 1,244 1,267 1,277 1,286 1,290 1,292 1,301 1,307 1,321 1,328 1,329 1,332 1,333 1,344 1,345 1,358 1,361 1,365 1,369 1,386 1,388 1,389 1,391 1,400 1,404 1,417 1,422 1,433 1,437 1,463 1,467 1,481 1,485 1,486 1,488 1,491 1,500 1,501 1,512 1,520 1,521 1,528 1,529 1,533 1,536 1,538 1,539 1,541 1,552 1,562 1,580 1,591 1,601 1,615 1,630 1,638 1,655 1,657 1,672 1,678 1,680 1,682 1,694 1,709 1,714 1,725 1,763 1,768 1,782 1,783 1,786 1,788 1,792 1,793 1,804 1,807 1,834 1,849 1,854 1,859 1,865 1,867 1,870 1,877 1,895 1,904 1,909 1}
{4 1,12 1,22 1,51 1,55 1,61 1,82 1,97 1,114 1,228 1,233 1,235 1,246 1,267 1,288 1,305 1,329 1,333 1,361 1,369 1,423 1,428 1,439 1,455 1,458 1,462 1,478 1,497 1,509 1,512 1,517 1,528 1,536 1,553 1,554 1,657 1,662 1,680 1,681 1,703 1,707 1,746 1,783 1,788 1,790 1,793 1,804 1,807 1,867 1,879 1,883 1,903 1,908 1,909 1,913 1}
{4 1,16 1,18 1,31 1,39 1,51 1,55 1,56 1,74 1,82 1,83 1,84 1,85 1,86 1,118 1,139 1,141 1,183 1,193 1,194 1,196 1,198 1,215 1,217 1,218 1,228 1,243 1,247 1,277 1,298 1,309 1,321 1,328 1,329 1,351 1,358 1,365 1,369 1,381 1,388 1,391 1,433 1,441 1,468 1,491 1,499 1,505 1,509 1,515 1,516 1,518 1,521 1,528 1,535 1,538 1,548 1,567 1,570 1,578 1,603 1,692 1,706 1,752 1,757 1,763 1,782 1,783 1,788 1,790 1,804 1,807 1,812 1,849 1,854 1,859 1,865 1,877 1,883 1,904 1}
{4 1,24 1,56 1,82 1,199 1,228 1,235 1,308 1,362 1,363 1,365 1,369 1,391 1,402 1,528 1,588 1,763 1,783 1,785 1,790 1,807 1,811 1,865 1,893 1,895 1,896 1}
{4 1,39 1,57 1,71 1,82 1,101 1,228 1,241 1,277 1,361 1,365 1,369 1,388 1,391 1,399 1,402 1,454 1,488 1,491 1,509 1,515 1,516 1,518 1,528 1,538 1,570 1,625 1,649 1,657 1,695 1,782 1,783 1,807 1,812 1,825 1,855 1,873 1,874 1,875 1,883 1}
{4 1,6 1,18 1,39 1,44 1,46 1,51 1,54 1,55 1,74 1,85 1,118 1,119 1,120 1,139 1,152 1,217 1,228 1,241 1,267 1,277 1,280 1,286 1,298 1,309 1,335 1,361 1,365 1,369 1,381 1,388 1,391 1,399 1,409 1,499 1,510 1,518 1,520 1,528 1,536 1,539 1,578 1,657 1,692 1,696 1,703 1,706 1,714 1,757 1,761 1,763 1,782 1,783 1,788 1,790 1,796 1,807 1,812 1,854 1,861 1,872 1,904 1,913 1}
{4 1,6 1,7 1,37 1,39 1,41 1,51 1,54 1,55 1,56 1,61 1,77 1,79 1,82 1,93 1,115 1,166 1,167 1,168 1,174 1,176 1,191 1,247 1,250 1,264 1,271 1,277 1,286 1,294 1,306 1,310 1,328 1,332 1,335 1,339 1,342 1,345 1,357 1,361 1,369 1,375 1,386 1,388 1,391 1,392 1,397 1,417 1,419 1,420 1,433 1,442 1,451 1,461 1,468 1,495 1,501 1,525 1,528 1,536 1,538 1,541 1,542 1,544 1,548 1,559 1,591 1,592 1,607 1,611 1,616 1,629 1,642 1,653 1,657 1,659 1,668 1,669 1,687 1,697 1,701 1,704 1,709 1,714 1,725 1,743 1,746 1,769 1,770 1,782 1,783 1,790 1,800 1,801 1,806 1,807 1,809 1,823 1,836 1,840 1,854 1,855 1,871 1,874 1,883 1,884 1,891 1,895 1,913 1}
{4 1,14 1,29 1,55 1,114 1,123 1,152 1,173 1,204 1,246 1,277 1,321 1,329 1,357 1,361 1,365 1,369 1,396 1,399 1,402 1,409 1,428 1,433 1,437 1,448 1,449 1,495 1,497 1,508 1,646 1,657 1,666 1,782 1,783 1,790 1,796 1,807 1,809 1,825 1,833 1,853 1,855 1,867 1,869 1,880 1,883 1,906 1,909 1}
{6 1,32 1,39 1,43 1,51 1,55 1,56 1,74 1,82 1,86 1,115 1,118 1,120 1,123 1,139 1,168 1,189 1,202 1,205 1,217 1,228 1,298 1,300 1,303 1,309 1,361 1,365 1,369 1,377 1,381 1,388 1,391 1,402 1,440 1,473 1,474 1,499 1,505 1,528 1,541 1,578 1,579 1,601 1,612 1,670 1,692 1,695 1,706 1,757 1,767 1,782 1,783 1,788 1,790 1,796 1,807 1,812 1,852 1,863 1,879 1,909 1,911 1,913 1}
{4 1,29 1,32 1,37 1,39 1,49 1,51 1,56 1,58 1,61 1,82 1,85 1,87 1,88 1,115 1,119 1,126 1,132 1,179 1,193 1,214 1,274 1,277 1,286 1,292 1,308 1,312 1,328 1,329 1,333 1,361 1,368 1,369 1,370 1,375 1,380 1,384 1,388 1,392 1,394 1,399 1,419 1,422 1,453 1,501 1,502 1,528 1,536 1,551 1,565 1,598 1,607 1,633 1,642 1,650 1,657 1,659 1,672 1,725 1,735 1,741 1,743 1,762 1,769 1,772 1,782 1,783 1,796 1,807 1,809 1,831 1,845 1,851 1,854 1,859 1,879 1,883 1,893 1,913 1}
{4 1,16 1,24 1,39 1,45 1,61 1,114 1,181 1,196 1,204 1,206 1,207 1,222 1,228 1,235 1,245 1,286 1,329 1,361 1,369 1,391 1,402 1,423 1,437 1,442 1,453 1,469 1,470 1,497 1,507 1,528 1,536 1,538 1,539 1,578 1,643 1,657 1,681 1,763 1,782 1,783 1,796 1,798 1,812 1,828 1,910 1}
{4 1,37 1,39 1,51 1,55 1,56 1,74 1,85 1,100 1,115 1,118 1,123 1,139 1,152 1,157 1,217 1,228 1,277 1,280 1,298 1,309 1,328 1,329 1,331 1,361 1,365 1,369 1,381 1,388 1,391 1,470 1,473 1,493 1,499 1,518 1,520 1,528 1,578 1,588 1,599 1,657 1,692 1,706 1,715 1,750 1,757 1,760 1,783 1,807 1,812 1,818 1,849 1,869 1,872 1,875 1,879 1,913 1}
{82 1,168 1,183 1,245 1,263 1,300 1,361 1,365 1,385 1,578 1,593 1,623 1,779 1,783 1,796 1,842 1,854 1,888 1,913 1}
{4 1,6 1,24 1,39 1,82 1,114 1,131 1,154 1,173 1,210 1,228 1,277 1,294 1,313 1,321 1,332 1,345 1,361 1,391 1,409 1,433 1,453 1,498 1,507 1,538 1,552 1,560 1,630 1,657 1,681 1,685 1,719 1,733 1,763 1,782 1,783 1,800 1,807 1,817 1,854 1,858 1,867 1,909 1}
{4 1,29 1,36 1,39 1,55 1,56 1,71 1,74 1,82 1,114 1,118 1,123 1,128 1,139 1,210 1,217 1,228 1,264 1,271 1,298 1,300 1,309 1,335 1,339 1,352 1,357 1,361 1,369 1,373 1,381 1,388 1,391 1,467 1,468 1,499 1,515 1,518 1,528 1,538 1,541 1,552 1,578 1,616 1,648 1,657 1,677 1,692 1,706 1,753 1,757 1,763 1,775 1,777 1,782 1,783 1,788 1,796 1,804 1,807 1,812 1,828 1,846 1,849 1,863 1,871 1,872 1,875 1,900 1,909 1,911 1,913 1}
{55 1,82 1,168 1,183 1,237 1,238 1,245 1,263 1,300 1,361 1,365 1,369 1,389 1,402 1,433 1,480 1,510 1,536 1,541 1,546 1,593 1,623 1,657 1,671 1,711 1,725 1,763 1,779 1,782 1,783 1,796 1,854 1,888 1,913 1}
{4 1,6 1,17 1,24 1,37 1,39 1,43 1,46 1,51 1,55 1,56 1,61 1,62 1,67 1,75 1,76 1,85 1,87 1,88 1,92 1,93 1,94 1,101 1,114 1,115 1,127 1,130 1,135 1,136 1,152 1,169 1,176 1,181 1,195 1,196 1,198 1,204 1,206 1,207 1,208 1,210 1,211 1,213 1,228 1,241 1,243 1,253 1,264 1,267 1,271 1,277 1,286 1,300 1,301 1,307 1,308 1,310 1,329 1,330 1,332 1,333 1,339 1,344 1,345 1,347 1,348 1,350 1,357 1,361 1,365 1,369 1,377 1,388 1,389 1,391 1,397 1,402 1,409 1,417 1,423 1,425 1,433 1,434 1,446 1,449 1,450 1,453 1,457 1,459 1,464 1,468 1,469 1,470 1,491 1,495 1,497 1,507 1,515 1,518 1,521 1,524 1,528 1,529 1,535 1,536 1,538 1,539 1,541 1,552 1,553 1,560 1,569 1,578 1,584 1,585 1,586 1,588 1,614 1,615 1,616 1,623 1,625 1,629 1,630 1,647 1,656 1,657 1,668 1,676 1,683 1,700 1,709 1,714 1,716 1,733 1,744 1,752 1,763 1,768 1,769 1,775 1,779 1,782 1,783 1,784 1,786 1,788 1,790 1,793 1,796 1,798 1,804 1,807 1,817 1,823 1,829 1,833 1,835 1,846 1,849 1,854 1,859 1,863 1,865 1,867 1,869 1,870 1,871 1,875 1,877 1,879 1,883 1,895 1,896 1,903 1,906 1,909 1,911 1}
{4 1,24 1,29 1,37 1,39 1,51 1,55 1,56 1,74 1,114 1,121 1,152 1,160 1,171 1,181 1,195 1,208 1,228 1,235 1,271 1,298 1,309 1,333 1,361 1,362 1,365 1,369 1,370 1,388 1,391 1,437 1,442 1,471 1,478 1,497 1,500 1,518 1,519 1,528 1,529 1,536 1,540 1,541 1,578 1,606 1,616 1,647 1,657 1,695 1,763 1,782 1,783 1,788 1,789 1,790 1,794 1,796 1,799 1,812 1,834 1,837 1,842 1,859 1,869 1,872 1,909 1,913 1}
{6 1,8 1,43 1,55 1,61 1,123 1,171 1,227 1,243 1,258 1,357 1,361 1,365 1,369 1,391 1,457 1,518 1,528 1,534 1,565 1,651 1,709 1,782 1,783 1,785 1,786 1,790 1,804 1,807 1,834 1,879 1,909 1,913 1}
{4 1,39 1,55 1,122 1,195 1,228 1,249 1,268 1,271 1,294 1,325 1,357 1,361 1,365 1,369 1,386 1,391 1,402 1,419 1,435 1,460 1,536 1,630 1,639 1,647 1,655 1,656 1,659 1,704 1,782 1,783 1,785 1,789 1,790 1,795 1,796 1,801 1,807 1,854 1,865 1,869 1}
{4 1,6 1,39 1,43 1,45 1,52 1,85 1,114 1,119 1,183 1,193 1,210 1,224 1,267 1,277 1,329 1,342 1,358 1,361 1,364 1,369 1,409 1,417 1,433 1,478 1,528 1,536 1,539 1,567 1,628 1,638 1,661 1,670 1,680 1,703 1,759 1,763 1,782 1,783 1,784 1,786 1,796 1,807 1,854 1,867 1,913 1}
{4 1,9 1,11 1,21 1,24 1,39 1,51 1,55 1,56 1,114 1,115 1,120 1,126 1,130 1,136 1,152 1,158 1,162 1,191 1,200 1,204 1,207 1,208 1,210 1,228 1,233 1,235 1,264 1,277 1,286 1,300 1,301 1,305 1,307 1,308 1,313 1,328 1,329 1,361 1,365 1,369 1,388 1,391 1,392 1,395 1,433 1,450 1,456 1,472 1,491 1,496 1,505 1,509 1,515 1,518 1,528 1,536 1,538 1,539 1,541 1,551 1,562 1,597 1,603 1,604 1,623 1,629 1,630 1,657 1,679 1,714 1,746 1,762 1,763 1,772 1,782 1,783 1,786 1,788 1,790 1,792 1,793 1,796 1,799 1,807 1,823 1,834 1,837 1,857 1,859 1,867 1,875 1,877 1,883 1,890 1,913 1}
{4 1,5 1,14 1,24 1,29 1,30 1,32 1,37 1,39 1,51 1,55 1,56 1,62 1,82 1,85 1,106 1,109 1,123 1,153 1,154 1,171 1,180 1,196 1,210 1,219 1,228 1,243 1,245 1,286 1,295 1,304 1,305 1,307 1,308 1,313 1,320 1,321 1,324 1,328 1,329 1,339 1,356 1,361 1,365 1,369 1,385 1,388 1,399 1,423 1,453 1,468 1,478 1,491 1,502 1,518 1,528 1,535 1,536 1,548 1,552 1,565 1,578 1,583 1,590 1,625 1,636 1,657 1,677 1,686 1,694 1,703 1,709 1,714 1,738 1,746 1,763 1,769 1,770 1,782 1,783 1,784 1,790 1,793 1,796 1,799 1,807 1,823 1,845 1,854 1,865 1,870 1,873 1,877 1,879 1,880 1,883 1,887 1,893 1,898 1,901 1,903 1,904 1,909 1}
{4 1,39 1,55 1,56 1,74 1,85 1,87 1,100 1,108 1,115 1,123 1,170 1,171 1,210 1,228 1,241 1,286 1,298 1,304 1,309 1,328 1,331 1,365 1,369 1,388 1,391 1,438 1,493 1,528 1,538 1,541 1,578 1,657 1,695 1,717 1,763 1,765 1,782 1,783 1,785 1,790 1,807 1,813 1,842 1,855 1,885 1,887 1,909 1,913 1}
{4 1,6 1,9 1,11 1,29 1,31 1,36 1,39 1,43 1,46 1,54 1,55 1,56 1,82 1,114 1,115 1,123 1,126 1,152 1,170 1,193 1,195 1,200 1,204 1,207 1,210 1,216 1,228 1,235 1,239 1,247 1,277 1,283 1,304 1,324 1,361 1,365 1,369 1,388 1,389 1,391 1,393 1,402 1,433 1,434 1,438 1,464 1,489 1,491 1,493 1,496 1,504 1,505 1,515 1,518 1,528 1,529 1,538 1,541 1,551 1,552 1,554 1,562 1,623 1,655 1,657 1,679 1,687 1,722 1,742 1,763 1,779 1,782 1,783 1,784 1,790 1,793 1,796 1,799 1,800 1,803 1,807 1,812 1,820 1,821 1,830 1,836 1,863 1,867 1,885 1,895 1,909 1,913 1}
{4 1,11 1,14 1,30 1,32 1,45 1,48 1,55 1,61 1,82 1,102 1,152 1,154 1,206 1,207 1,219 1,324 1,328 1,329 1,332 1,353 1,359 1,361 1,369 1,385 1,439 1,453 1,469 1,478 1,506 1,521 1,528 1,536 1,538 1,548 1,583 1,601 1,647 1,656 1,695 1,783 1,790 1,796 1,863 1,875 1,897 1,909 1}
{4 1,11 1,32 1,37 1,39 1,48 1,51 1,55 1,56 1,70 1,82 1,88 1,93 1,114 1,115 1,135 1,149 1,152 1,204 1,207 1,210 1,221 1,228 1,277 1,302 1,327 1,330 1,361 1,363 1,369 1,388 1,391 1,411 1,456 1,515 1,518 1,521 1,528 1,536 1,539 1,557 1,625 1,630 1,657 1,679 1,681 1,717 1,727 1,745 1,752 1,760 1,763 1,765 1,782 1,783 1,788 1,790 1,796 1,804 1,807 1,883 1,892 1,909 1,913 1}
{4 1,6 1,9 1,11 1,24 1,39 1,55 1,56 1,63 1,103 1,114 1,126 1,152 1,177 1,195 1,200 1,207 1,228 1,235 1,249 1,277 1,286 1,305 1,318 1,321 1,329 1,332 1,342 1,357 1,361 1,365 1,369 1,388 1,391 1,402 1,409 1,416 1,433 1,437 1,468 1,488 1,491 1,496 1,508 1,528 1,536 1,538 1,539 1,551 1,552 1,562 1,601 1,603 1,623 1,630 1,634 1,638 1,670 1,679 1,682 1,707 1,725 1,739 1,782 1,783 1,788 1,790 1,793 1,800 1,807 1,812 1,852 1,854 1,859 1,865 1,883 1,895 1,909 1,911 1,913 1}
{4 1,24 1,39 1,51 1,55 1,76 1,82 1,106 1,114 1,115 1,117 1,169 1,196 1,210 1,223 1,226 1,271 1,277 1,293 1,294 1,305 1,321 1,329 1,332 1,348 1,353 1,354 1,357 1,361 1,369 1,402 1,405 1,407 1,409 1,412 1,453 1,463 1,496 1,497 1,498 1,521 1,528 1,536 1,538 1,541 1,552 1,577 1,615 1,647 1,655 1,656 1,676 1,763 1,783 1,796 1,807 1,834 1,835 1,854 1,859 1,875 1,883 1,892 1,901 1,909 1,911 1}
{0 1,4 1,22 1,39 1,43 1,51 1,55 1,56 1,74 1,80 1,83 1,87 1,90 1,101 1,114 1,123 1,128 1,134 1,157 1,171 1,199 1,210 1,228 1,242 1,277 1,298 1,308 1,309 1,321 1,358 1,361 1,369 1,388 1,391 1,393 1,399 1,402 1,453 1,491 1,493 1,497 1,518 1,521 1,523 1,528 1,536 1,538 1,541 1,548 1,551 1,560 1,578 1,613 1,623 1,625 1,635 1,638 1,642 1,647 1,650 1,702 1,704 1,709 1,755 1,763 1,764 1,779 1,782 1,783 1,788 1,793 1,796 1,800 1,807 1,823 1,842 1,846 1,854 1,863 1,865 1,867 1,869 1,875 1,877 1,883 1,889 1,893 1,904 1,906 1,909 1,913 1}
{4 1,6 1,10 1,12 1,18 1,24 1,25 1,29 1,36 1,37 1,39 1,41 1,43 1,46 1,49 1,51 1,53 1,54 1,56 1,61 1,70 1,75 1,82 1,88 1,94 1,95 1,96 1,106 1,114 1,115 1,120 1,121 1,123 1,132 1,137 1,145 1,148 1,154 1,160 1,164 1,166 1,168 1,177 1,178 1,184 1,194 1,196 1,203 1,204 1,207 1,208 1,209 1,210 1,211 1,222 1,223 1,242 1,250 1,260 1,267 1,268 1,269 1,271 1,275 1,277 1,281 1,286 1,300 1,301 1,302 1,305 1,306 1,307 1,317 1,326 1,328 1,329 1,331 1,335 1,339 1,347 1,353 1,355 1,357 1,358 1,361 1,363 1,365 1,369 1,374 1,377 1,386 1,388 1,389 1,391 1,392 1,397 1,407 1,416 1,417 1,422 1,425 1,426 1,427 1,431 1,433 1,442 1,444 1,453 1,462 1,469 1,470 1,481 1,488 1,493 1,495 1,497 1,501 1,502 1,508 1,515 1,518 1,519 1,521 1,524 1,528 1,529 1,534 1,535 1,536 1,538 1,539 1,541 1,542 1,548 1,551 1,552 1,553 1,554 1,568 1,570 1,588 1,592 1,594 1,597 1,600 1,603 1,607 1,616 1,622 1,627 1,628 1,629 1,633 1,642 1,643 1,647 1,655 1,657 1,669 1,672 1,689 1,695 1,697 1,699 1,707 1,709 1,712 1,714 1,716 1,725 1,742 1,743 1,746 1,751 1,754 1,761 1,763 1,764 1,767 1,776 1,777 1,779 1,782 1,783 1,786 1,789 1,790 1,793 1,795 1,796 1,802 1,807 1,816 1,834 1,837 1,840 1,854 1,856 1,859 1,860 1,861 1,862 1,865 1,867 1,869 1,870 1,872 1,875 1,877 1,879 1,883 1,884 1,887 1,888 1,889 1,890 1,895 1,898 1,903 1,904 1,906 1,909 1,911 1,913 1}
{4 1,24 1,39 1,43 1,51 1,61 1,90 1,114 1,170 1,192 1,261 1,277 1,292 1,318 1,329 1,332 1,354 1,361 1,365 1,369 1,385 1,388 1,442 1,508 1,528 1,536 1,541 1,619 1,657 1,661 1,769 1,782 1,783 1,798 1,807 1,854 1,902 1}
{4 1,6 1,39 1,41 1,43 1,46 1,51 1,55 1,56 1,74 1,85 1,114 1,115 1,123 1,128 1,141 1,171 1,209 1,210 1,211 1,228 1,253 1,270 1,271 1,277 1,286 1,298 1,309 1,315 1,328 1,329 1,357 1,361 1,365 1,369 1,390 1,391 1,409 1,453 1,477 1,496 1,511 1,518 1,528 1,541 1,551 1,552 1,558 1,560 1,578 1,579 1,613 1,632 1,637 1,639 1,657 1,678 1,683 1,709 1,720 1,755 1,763 1,782 1,783 1,788 1,790 1,798 1,799 1,807 1,809 1,823 1,834 1,842 1,846 1,854 1,859 1,865 1,869 1,870 1,883 1,887 1,890 1,909 1,913 1}
{4 1,6 1,9 1,19 1,21 1,28 1,29 1,30 1,35 1,37 1,39 1,53 1,54 1,56 1,61 1,65 1,77 1,82 1,84 1,85 1,111 1,114 1,115 1,116 1,119 1,123 1,138 1,140 1,158 1,159 1,166 1,167 1,168 1,176 1,182 1,184 1,191 1,192 1,193 1,194 1,196 1,204 1,211 1,213 1,223 1,235 1,244 1,250 1,271 1,273 1,277 1,278 1,281 1,286 1,288 1,289 1,292 1,300 1,305 1,306 1,307 1,312 1,321 1,328 1,329 1,332 1,343 1,346 1,357 1,358 1,361 1,365 1,369 1,371 1,375 1,382 1,386 1,388 1,391 1,392 1,402 1,405 1,416 1,422 1,426 1,427 1,428 1,429 1,432 1,433 1,437 1,451 1,454 1,456 1,457 1,461 1,468 1,481 1,488 1,490 1,491 1,495 1,497 1,501 1,505 1,509 1,512 1,518 1,521 1,528 1,529 1,535 1,536 1,538 1,539 1,542 1,543 1,547 1,548 1,552 1,553 1,574 1,580 1,589 1,598 1,605 1,607 1,608 1,609 1,615 1,621 1,625 1,642 1,645 1,652 1,653 1,657 1,659 1,667 1,672 1,677 1,683 1,684 1,686 1,701 1,704 1,725 1,731 1,736 1,739 1,743 1,762 1,763 1,764 1,772 1,777 1,778 1,779 1,782 1,783 1,786 1,788 1,790 1,795 1,796 1,801 1,804 1,807 1,809 1,814 1,823 1,834 1,837 1,840 1,847 1,849 1,854 1,856 1,858 1,859 1,860 1,864 1,865 1,870 1,872 1,873 1,874 1,875 1,879 1,883 1,884 1,887 1,890 1,895 1,900 1,904 1,907 1,909 1,913 1}
{4 1,19 1,29 1,39 1,55 1,82 1,83 1,88 1,92 1,109 1,120 1,123 1,137 1,152 1,198 1,207 1,308 1,329 1,357 1,361 1,365 1,369 1,388 1,391 1,439 1,446 1,464 1,467 1,491 1,507 1,515 1,520 1,538 1,541 1,549 1,588 1,779 1,782 1,783 1,784 1,790 1,796 1,799 1,823 1,834 1,863 1,871 1,879 1,880 1,883 1,911 1}
{4 1,6 1,7 1,12 1,14 1,16 1,24 1,26 1,28 1,29 1,32 1,35 1,37 1,39 1,43 1,46 1,51 1,56 1,61 1,70 1,82 1,83 1,86 1,87 1,92 1,94 1,96 1,104 1,106 1,114 1,115 1,116 1,117 1,123 1,124 1,126 1,134 1,148 1,154 1,163 1,164 1,166 1,168 1,177 1,182 1,183 1,197 1,202 1,204 1,205 1,215 1,220 1,222 1,223 1,227 1,230 1,231 1,233 1,236 1,241 1,242 1,243 1,245 1,246 1,267 1,268 1,271 1,274 1,276 1,277 1,279 1,280 1,281 1,284 1,286 1,289 1,300 1,328 1,329 1,332 1,333 1,334 1,336 1,342 1,345 1,353 1,355 1,357 1,361 1,365 1,368 1,369 1,372 1,377 1,386 1,388 1,391 1,404 1,407 1,416 1,425 1,427 1,431 1,433 1,436 1,438 1,440 1,451 1,453 1,454 1,456 1,457 1,463 1,468 1,473 1,474 1,478 1,482 1,484 1,488 1,490 1,491 1,493 1,495 1,497 1,503 1,508 1,513 1,515 1,517 1,518 1,520 1,525 1,528 1,529 1,536 1,537 1,538 1,539 1,541 1,548 1,552 1,567 1,568 1,570 1,587 1,604 1,612 1,630 1,631 1,643 1,647 1,650 1,657 1,660 1,678 1,679 1,691 1,695 1,701 1,704 1,709 1,710 1,714 1,734 1,739 1,753 1,759 1,761 1,763 1,764 1,766 1,779 1,782 1,783 1,784 1,785 1,786 1,789 1,790 1,792 1,796 1,798 1,804 1,805 1,807 1,812 1,818 1,821 1,823 1,831 1,834 1,836 1,837 1,840 1,845 1,849 1,852 1,854 1,857 1,860 1,861 1,863 1,867 1,869 1,872 1,873 1,876 1,877 1,879 1,883 1,884 1,887 1,890 1,900 1,907 1,909 1,911 1,913 1}
{4 1,6 1,9 1,21 1,24 1,39 1,51 1,55 1,61 1,116 1,123 1,152 1,200 1,204 1,216 1,277 1,278 1,303 1,324 1,329 1,353 1,361 1,369 1,407 1,435 1,439 1,442 1,453 1,457 1,471 1,480 1,493 1,501 1,506 1,515 1,528 1,536 1,540 1,548 1,550 1,551 1,562 1,677 1,709 1,716 1,754 1,763 1,777 1,783 1,785 1,790 1,792 1,798 1,803 1,807 1,832 1,835 1,859 1,867 1,869 1,883 1,896 1,909 1,913 1}
{0 1,4 1,22 1,37 1,39 1,46 1,49 1,51 1,61 1,65 1,68 1,76 1,87 1,92 1,114 1,115 1,123 1,153 1,169 1,171 1,181 1,204 1,213 1,218 1,220 1,222 1,223 1,235 1,240 1,277 1,282 1,293 1,294 1,295 1,296 1,301 1,308 1,320 1,321 1,329 1,336 1,349 1,359 1,361 1,365 1,369 1,378 1,388 1,391 1,402 1,403 1,412 1,417 1,423 1,426 1,436 1,441 1,484 1,491 1,500 1,509 1,512 1,515 1,518 1,521 1,525 1,528 1,536 1,538 1,539 1,541 1,545 1,549 1,551 1,555 1,576 1,585 1,587 1,590 1,595 1,619 1,624 1,634 1,657 1,660 1,676 1,714 1,715 1,721 1,739 1,744 1,764 1,769 1,770 1,779 1,781 1,783 1,784 1,785 1,788 1,789 1,790 1,796 1,804 1,807 1,823 1,835 1,843 1,849 1,851 1,852 1,854 1,859 1,865 1,870 1,879 1,883 1,895 1,903 1,909 1,911 1}
{4 1,6 1,18 1,39 1,43 1,44 1,46 1,51 1,52 1,54 1,55 1,74 1,85 1,88 1,119 1,120 1,152 1,171 1,195 1,210 1,226 1,228 1,241 1,248 1,267 1,277 1,280 1,286 1,298 1,309 1,313 1,328 1,335 1,361 1,365 1,369 1,373 1,386 1,388 1,391 1,399 1,409 1,451 1,463 1,510 1,518 1,520 1,528 1,536 1,539 1,561 1,567 1,578 1,657 1,687 1,696 1,703 1,714 1,761 1,763 1,782 1,783 1,788 1,790 1,796 1,807 1,842 1,854 1,861 1,872 1,904 1,913 1}
{4 1,9 1,14 1,29 1,34 1,37 1,39 1,56 1,79 1,82 1,84 1,146 1,152 1,168 1,187 1,191 1,199 1,200 1,204 1,208 1,210 1,213 1,216 1,220 1,233 1,239 1,243 1,244 1,246 1,267 1,269 1,277 1,283 1,305 1,307 1,325 1,329 1,342 1,357 1,361 1,365 1,369 1,386 1,388 1,390 1,391 1,402 1,433 1,442 1,454 1,469 1,501 1,506 1,508 1,528 1,529 1,536 1,548 1,549 1,559 1,562 1,567 1,597 1,607 1,609 1,629 1,642 1,658 1,695 1,699 1,704 1,715 1,716 1,717 1,720 1,728 1,754 1,763 1,772 1,779 1,782 1,783 1,790 1,792 1,793 1,796 1,803 1,807 1,812 1,840 1,854 1,859 1,867 1,872 1,875 1,890 1,893 1,895 1,898 1,909 1,911 1,913 1}
{4 1,5 1,6 1,14 1,15 1,24 1,29 1,30 1,31 1,32 1,37 1,39 1,41 1,51 1,53 1,54 1,56 1,57 1,61 1,66 1,70 1,71 1,76 1,82 1,83 1,85 1,86 1,88 1,91 1,92 1,94 1,97 1,106 1,107 1,109 1,110 1,114 1,115 1,119 1,120 1,123 1,134 1,135 1,137 1,153 1,154 1,168 1,170 1,173 1,177 1,182 1,186 1,187 1,188 1,196 1,208 1,210 1,213 1,219 1,227 1,232 1,239 1,244 1,256 1,261 1,268 1,271 1,274 1,277 1,286 1,288 1,295 1,300 1,301 1,303 1,305 1,307 1,308 1,310 1,318 1,321 1,328 1,329 1,332 1,344 1,345 1,347 1,349 1,357 1,361 1,365 1,369 1,378 1,385 1,386 1,388 1,389 1,391 1,397 1,399 1,402 1,404 1,409 1,411 1,417 1,418 1,426 1,428 1,433 1,437 1,439 1,442 1,443 1,444 1,446 1,454 1,457 1,458 1,468 1,469 1,470 1,471 1,481 1,482 1,491 1,495 1,497 1,505 1,518 1,521 1,528 1,529 1,533 1,534 1,536 1,537 1,538 1,539 1,541 1,551 1,552 1,562 1,569 1,577 1,583 1,588 1,590 1,595 1,600 1,604 1,615 1,617 1,623 1,625 1,627 1,638 1,657 1,660 1,667 1,676 1,679 1,680 1,683 1,684 1,685 1,686 1,694 1,703 1,709 1,714 1,733 1,735 1,739 1,746 1,750 1,755 1,761 1,763 1,766 1,767 1,769 1,770 1,779 1,782 1,783 1,784 1,785 1,786 1,788 1,789 1,790 1,793 1,796 1,798 1,800 1,802 1,804 1,807 1,809 1,812 1,817 1,821 1,822 1,823 1,833 1,834 1,835 1,837 1,844 1,846 1,854 1,858 1,859 1,863 1,864 1,865 1,867 1,869 1,871 1,872 1,873 1,875 1,877 1,879 1,880 1,883 1,885 1,887 1,890 1,893 1,895 1,896 1,902 1,903 1,906 1,907 1,909 1,911 1}
{4 1,24 1,32 1,39 1,43 1,82 1,126 1,175 1,209 1,210 1,215 1,222 1,231 1,315 1,346 1,357 1,361 1,369 1,377 1,392 1,441 1,470 1,528 1,536 1,541 1,548 1,609 1,626 1,642 1,694 1,699 1,763 1,781 1,783 1,807 1,909 1,913 1}
{39 1,51 1,56 1,82 1,116 1,220 1,224 1,258 1,264 1,271 1,273 1,286 1,307 1,342 1,388 1,392 1,402 1,501 1,525 1,528 1,752 1,778 1,783 1,807 1,883 1,900 1,913 1}
{4 1,5 1,6 1,14 1,37 1,39 1,43 1,45 1,56 1,61 1,82 1,85 1,101 1,106 1,114 1,115 1,123 1,153 1,196 1,222 1,224 1,228 1,243 1,268 1,271 1,286 1,303 1,305 1,328 1,329 1,335 1,339 1,345 1,354 1,357 1,358 1,361 1,369 1,380 1,386 1,399 1,410 1,417 1,427 1,433 1,450 1,457 1,463 1,478 1,488 1,496 1,497 1,506 1,510 1,518 1,519 1,523 1,528 1,533 1,536 1,553 1,574 1,592 1,625 1,634 1,642 1,647 1,657 1,661 1,685 1,693 1,695 1,709 1,714 1,718 1,722 1,739 1,742 1,755 1,763 1,779 1,782 1,783 1,785 1,793 1,796 1,807 1,811 1,815 1,830 1,854 1,859 1,875 1,879 1,889 1,890 1,895 1,903 1,909 1}
{4 1,5 1,6 1,7 1,14 1,18 1,24 1,29 1,36 1,37 1,39 1,43 1,45 1,51 1,55 1,56 1,67 1,74 1,82 1,83 1,91 1,97 1,114 1,118 1,123 1,127 1,128 1,129 1,139 1,146 1,152 1,153 1,165 1,171 1,186 1,196 1,199 1,201 1,204 1,205 1,209 1,210 1,211 1,213 1,217 1,228 1,235 1,236 1,250 1,260 1,268 1,270 1,277 1,280 1,286 1,298 1,299 1,300 1,305 1,307 1,308 1,309 1,313 1,315 1,317 1,321 1,328 1,329 1,330 1,331 1,336 1,339 1,355 1,358 1,360 1,361 1,365 1,369 1,381 1,388 1,391 1,402 1,404 1,407 1,426 1,428 1,431 1,433 1,438 1,441 1,453 1,457 1,458 1,459 1,463 1,468 1,469 1,470 1,474 1,478 1,491 1,493 1,495 1,497 1,499 1,507 1,509 1,515 1,518 1,520 1,521 1,528 1,536 1,538 1,539 1,541 1,548 1,550 1,552 1,554 1,563 1,564 1,567 1,569 1,573 1,578 1,588 1,603 1,605 1,615 1,632 1,642 1,657 1,659 1,660 1,667 1,668 1,680 1,682 1,692 1,695 1,706 1,709 1,714 1,717 1,720 1,746 1,754 1,755 1,757 1,763 1,768 1,775 1,782 1,783 1,786 1,788 1,789 1,792 1,793 1,796 1,798 1,804 1,807 1,809 1,812 1,814 1,820 1,822 1,832 1,834 1,842 1,846 1,849 1,854 1,858 1,863 1,867 1,869 1,872 1,873 1,875 1,879 1,883 1,895 1,904 1,909 1,911 1,913 1}
{4 1,28 1,30 1,39 1,51 1,82 1,121 1,152 1,182 1,193 1,236 1,277 1,286 1,293 1,339 1,395 1,468 1,528 1,612 1,657 1,714 1,725 1,761 1,776 1,783 1,796 1,807 1,893 1,899 1,913 1}
{4 1,11 1,29 1,37 1,39 1,45 1,46 1,51 1,61 1,66 1,70 1,71 1,76 1,81 1,82 1,84 1,88 1,92 1,94 1,114 1,168 1,169 1,170 1,171 1,173 1,180 1,204 1,228 1,240 1,243 1,267 1,271 1,277 1,286 1,289 1,295 1,303 1,305 1,308 1,328 1,329 1,332 1,339 1,343 1,344 1,347 1,358 1,361 1,365 1,369 1,388 1,389 1,391 1,409 1,417 1,426 1,433 1,442 1,449 1,468 1,478 1,491 1,495 1,515 1,528 1,534 1,538 1,541 1,550 1,552 1,583 1,584 1,597 1,677 1,709 1,714 1,731 1,735 1,763 1,770 1,779 1,782 1,783 1,786 1,788 1,789 1,793 1,795 1,796 1,807 1,833 1,836 1,846 1,870 1,879 1,880 1,883 1,887 1,904 1}
{4 1,6 1,8 1,9 1,11 1,24 1,29 1,30 1,35 1,37 1,39 1,40 1,41 1,43 1,46 1,47 1,50 1,51 1,54 1,56 1,57 1,58 1,61 1,65 1,68 1,70 1,75 1,80 1,81 1,82 1,83 1,85 1,86 1,88 1,90 1,94 1,99 1,101 1,102 1,106 1,107 1,112 1,114 1,115 1,116 1,117 1,119 1,121 1,123 1,126 1,129 1,131 1,138 1,150 1,154 1,158 1,159 1,160 1,163 1,164 1,165 1,166 1,167 1,168 1,171 1,174 1,175 1,177 1,179 1,181 1,186 1,191 1,192 1,195 1,196 1,199 1,204 1,208 1,210 1,211 1,212 1,213 1,214 1,222 1,223 1,226 1,228 1,233 1,235 1,242 1,243 1,245 1,247 1,249 1,251 1,256 1,263 1,265 1,266 1,267 1,270 1,274 1,277 1,280 1,281 1,284 1,286 1,287 1,292 1,300 1,302 1,305 1,307 1,310 1,320 1,321 1,322 1,324 1,326 1,328 1,329 1,330 1,334 1,336 1,339 1,343 1,347 1,352 1,354 1,355 1,357 1,358 1,360 1,361 1,362 1,363 1,365 1,369 1,372 1,373 1,374 1,376 1,377 1,378 1,384 1,386 1,388 1,391 1,392 1,393 1,396 1,402 1,403 1,404 1,405 1,406 1,407 1,412 1,416 1,419 1,424 1,426 1,427 1,433 1,435 1,436 1,439 1,445 1,453 1,454 1,455 1,456 1,457 1,458 1,463 1,464 1,468 1,469 1,470 1,473 1,475 1,477 1,490 1,491 1,493 1,495 1,497 1,498 1,500 1,503 1,505 1,508 1,509 1,510 1,512 1,515 1,517 1,518 1,521 1,523 1,524 1,525 1,528 1,529 1,531 1,535 1,536 1,537 1,538 1,539 1,540 1,541 1,547 1,548 1,549 1,550 1,552 1,553 1,554 1,555 1,559 1,565 1,566 1,567 1,568 1,570 1,573 1,587 1,591 1,596 1,597 1,600 1,601 1,606 1,607 1,608 1,615 1,617 1,625 1,629 1,633 1,640 1,643 1,646 1,647 1,655 1,656 1,657 1,660 1,671 1,677 1,678 1,679 1,680 1,682 1,683 1,686 1,688 1,690 1,691 1,695 1,696 1,699 1,701 1,703 1,709 1,711 1,714 1,718 1,720 1,725 1,728 1,732 1,733 1,737 1,740 1,742 1,746 1,747 1,753 1,754 1,755 1,761 1,762 1,763 1,764 1,767 1,772 1,775 1,779 1,781 1,782 1,783 1,784 1,785 1,786 1,788 1,789 1,790 1,791 1,792 1,793 1,796 1,799 1,801 1,802 1,804 1,807 1,810 1,812 1,815 1,817 1,821 1,823 1,824 1,825 1,828 1,830 1,832 1,834 1,836 1,837 1,838 1,839 1,840 1,843 1,845 1,846 1,849 1,850 1,851 1,852 1,854 1,855 1,858 1,860 1,861 1,865 1,867 1,868 1,869 1,872 1,873 1,875 1,876 1,879 1,883 1,887 1,889 1,890 1,892 1,898 1,899 1,900 1,909 1,911 1,913 1}
{4 1,14 1,23 1,24 1,37 1,42 1,43 1,55 1,56 1,77 1,82 1,115 1,225 1,228 1,274 1,329 1,363 1,364 1,369 1,388 1,469 1,478 1,496 1,509 1,522 1,528 1,541 1,629 1,709 1,725 1,743 1,783 1,793 1,796 1,807 1,859 1,877 1,913 1}
{4 1,45 1,55 1,206 1,228 1,271 1,286 1,329 1,361 1,369 1,409 1,497 1,536 1,783 1,790 1,807 1,811 1,854 1,867 1,869 1,883 1,903 1}
{4 1,5 1,6 1,7 1,11 1,14 1,24 1,29 1,32 1,37 1,39 1,40 1,41 1,43 1,46 1,47 1,50 1,51 1,54 1,56 1,61 1,65 1,67 1,77 1,79 1,82 1,83 1,84 1,85 1,90 1,92 1,97 1,98 1,103 1,104 1,107 1,112 1,114 1,115 1,123 1,130 1,137 1,138 1,149 1,150 1,156 1,159 1,160 1,165 1,166 1,171 1,177 1,178 1,182 1,191 1,195 1,199 1,204 1,207 1,209 1,210 1,213 1,220 1,222 1,223 1,224 1,228 1,234 1,235 1,239 1,241 1,243 1,244 1,245 1,249 1,250 1,253 1,256 1,257 1,263 1,265 1,267 1,277 1,284 1,286 1,287 1,289 1,293 1,299 1,300 1,301 1,302 1,303 1,308 1,310 1,321 1,324 1,328 1,329 1,334 1,336 1,347 1,352 1,357 1,361 1,365 1,369 1,371 1,372 1,376 1,377 1,378 1,382 1,385 1,386 1,388 1,391 1,392 1,397 1,399 1,404 1,406 1,409 1,417 1,424 1,427 1,428 1,435 1,436 1,437 1,440 1,441 1,445 1,449 1,450 1,455 1,457 1,461 1,463 1,468 1,470 1,473 1,478 1,484 1,491 1,493 1,495 1,497 1,500 1,509 1,512 1,516 1,518 1,519 1,521 1,523 1,525 1,528 1,531 1,532 1,534 1,535 1,536 1,538 1,539 1,540 1,541 1,548 1,549 1,550 1,552 1,554 1,555 1,556 1,557 1,566 1,583 1,587 1,592 1,598 1,601 1,603 1,604 1,606 1,607 1,608 1,611 1,612 1,615 1,617 1,618 1,622 1,623 1,628 1,630 1,634 1,642 1,646 1,647 1,655 1,656 1,657 1,660 1,668 1,678 1,679 1,681 1,683 1,687 1,688 1,690 1,694 1,695 1,702 1,704 1,709 1,711 1,714 1,718 1,723 1,725 1,729 1,730 1,739 1,746 1,750 1,752 1,754 1,755 1,761 1,763 1,764 1,766 1,776 1,779 1,782 1,783 1,784 1,785 1,786 1,789 1,790 1,796 1,798 1,799 1,802 1,804 1,805 1,807 1,809 1,812 1,817 1,819 1,823 1,824 1,828 1,832 1,834 1,835 1,836 1,837 1,838 1,840 1,841 1,845 1,849 1,851 1,852 1,854 1,858 1,863 1,867 1,868 1,869 1,870 1,872 1,873 1,875 1,877 1,879 1,880 1,883 1,885 1,889 1,890 1,891 1,892 1,894 1,895 1,900 1,904 1,909 1,911 1,913 1}
{4 1,7 1,14 1,29 1,37 1,39 1,48 1,49 1,56 1,58 1,61 1,65 1,82 1,96 1,115 1,123 1,132 1,162 1,166 1,167 1,168 1,170 1,177 1,179 1,207 1,214 1,226 1,235 1,245 1,250 1,255 1,274 1,277 1,286 1,289 1,292 1,300 1,303 1,320 1,332 1,342 1,354 1,358 1,369 1,371 1,375 1,377 1,384 1,388 1,395 1,399 1,405 1,451 1,457 1,459 1,496 1,501 1,502 1,509 1,512 1,518 1,528 1,531 1,536 1,538 1,546 1,548 1,553 1,591 1,605 1,607 1,621 1,642 1,643 1,646 1,657 1,659 1,672 1,697 1,709 1,725 1,742 1,743 1,751 1,754 1,762 1,769 1,772 1,782 1,783 1,784 1,790 1,796 1,801 1,802 1,807 1,816 1,825 1,828 1,830 1,831 1,836 1,837 1,855 1,866 1,872 1,873 1,874 1,879 1,884 1,895 1,903 1,904 1,913 1}
{24 1,39 1,55 1,70 1,88 1,91 1,116 1,173 1,228 1,244 1,264 1,329 1,361 1,369 1,391 1,528 1,634 1,745 1,770 1,783 1,793 1,854 1,858 1,883 1}
{4 1,6 1,7 1,16 1,19 1,24 1,29 1,32 1,37 1,39 1,45 1,51 1,55 1,56 1,64 1,77 1,79 1,82 1,83 1,88 1,93 1,113 1,114 1,115 1,123 1,125 1,131 1,135 1,144 1,153 1,161 1,168 1,171 1,174 1,175 1,204 1,210 1,223 1,224 1,228 1,230 1,243 1,260 1,271 1,277 1,286 1,314 1,328 1,329 1,339 1,357 1,358 1,361 1,363 1,364 1,365 1,368 1,369 1,372 1,388 1,391 1,407 1,411 1,415 1,427 1,433 1,437 1,459 1,460 1,467 1,474 1,491 1,493 1,505 1,509 1,515 1,518 1,528 1,536 1,538 1,541 1,548 1,559 1,560 1,561 1,567 1,588 1,614 1,625 1,627 1,645 1,657 1,660 1,667 1,668 1,672 1,673 1,674 1,679 1,680 1,687 1,695 1,709 1,714 1,717 1,746 1,748 1,749 1,751 1,763 1,768 1,779 1,782 1,783 1,784 1,786 1,789 1,790 1,791 1,793 1,796 1,798 1,807 1,809 1,820 1,835 1,836 1,840 1,854 1,859 1,865 1,867 1,872 1,873 1,875 1,876 1,883 1,890 1,895 1,909 1,911 1,913 1}
{4 1,9 1,29 1,39 1,51 1,55 1,56 1,61 1,68 1,77 1,86 1,87 1,94 1,112 1,115 1,152 1,200 1,210 1,212 1,216 1,243 1,283 1,285 1,321 1,332 1,342 1,361 1,369 1,391 1,393 1,411 1,412 1,469 1,483 1,487 1,497 1,506 1,528 1,536 1,538 1,540 1,562 1,627 1,629 1,657 1,670 1,708 1,763 1,782 1,783 1,786 1,803 1,833 1,854 1,863 1,875 1,883 1,913 1}
{4 1,14 1,37 1,43 1,51 1,55 1,62 1,76 1,82 1,83 1,84 1,86 1,91 1,92 1,109 1,114 1,115 1,117 1,151 1,152 1,160 1,168 1,177 1,182 1,206 1,262 1,265 1,270 1,271 1,305 1,356 1,361 1,365 1,369 1,383 1,388 1,391 1,402 1,453 1,469 1,470 1,497 1,498 1,509 1,514 1,518 1,528 1,530 1,541 1,577 1,583 1,592 1,593 1,601 1,636 1,657 1,659 1,661 1,686 1,703 1,719 1,762 1,763 1,769 1,770 1,779 1,782 1,783 1,790 1,796 1,798 1,800 1,807 1,865 1,866 1,867 1,879 1,882 1,887 1,893 1,895 1,901 1,906 1,908 1}
{4 1,6 1,31 1,37 1,39 1,40 1,41 1,50 1,55 1,58 1,65 1,82 1,90 1,114 1,123 1,138 1,171 1,177 1,179 1,196 1,222 1,228 1,232 1,245 1,263 1,267 1,270 1,277 1,280 1,287 1,289 1,299 1,300 1,316 1,322 1,365 1,369 1,376 1,378 1,388 1,391 1,392 1,405 1,406 1,433 1,442 1,455 1,491 1,493 1,500 1,509 1,517 1,521 1,528 1,531 1,536 1,538 1,541 1,566 1,568 1,580 1,593 1,617 1,657 1,660 1,683 1,760 1,763 1,783 1,795 1,796 1,807 1,815 1,845 1,867 1,879 1,883 1,909 1,911 1,913 1}
{4 1,13 1,29 1,30 1,39 1,40 1,43 1,55 1,58 1,61 1,114 1,120 1,137 1,172 1,178 1,181 1,196 1,204 1,228 1,233 1,277 1,285 1,287 1,300 1,311 1,321 1,329 1,332 1,353 1,354 1,361 1,363 1,369 1,376 1,388 1,391 1,420 1,483 1,491 1,500 1,501 1,509 1,510 1,519 1,523 1,528 1,531 1,536 1,541 1,660 1,668 1,671 1,695 1,725 1,763 1,781 1,782 1,783 1,788 1,790 1,807 1,819 1,821 1,826 1,836 1,837 1,851 1,854 1,867 1,872 1,909 1,913 1}
{4 1,30 1,32 1,41 1,154 1,219 1,361 1,385 1,514 1,528 1,539 1,570 1,631 1,636 1,763 1,783 1,790 1,875 1,877 1,880 1,887 1,907 1}
{4 1,5 1,6 1,7 1,24 1,26 1,29 1,30 1,31 1,35 1,36 1,37 1,39 1,40 1,41 1,43 1,46 1,50 1,51 1,52 1,54 1,55 1,56 1,57 1,58 1,59 1,61 1,65 1,67 1,70 1,75 1,79 1,81 1,82 1,83 1,84 1,85 1,86 1,87 1,89 1,90 1,92 1,93 1,94 1,97 1,98 1,100 1,103 1,104 1,106 1,113 1,114 1,115 1,116 1,117 1,123 1,126 1,130 1,131 1,138 1,140 1,150 1,153 1,157 1,167 1,170 1,171 1,174 1,175 1,177 1,179 1,182 1,189 1,192 1,198 1,199 1,204 1,205 1,207 1,210 1,213 1,222 1,228 1,233 1,236 1,239 1,242 1,243 1,245 1,247 1,253 1,254 1,263 1,270 1,271 1,277 1,286 1,287 1,289 1,299 1,300 1,301 1,302 1,303 1,305 1,308 1,310 1,328 1,329 1,333 1,334 1,335 1,336 1,339 1,357 1,358 1,360 1,361 1,362 1,363 1,365 1,368 1,369 1,372 1,376 1,377 1,378 1,386 1,388 1,389 1,390 1,391 1,392 1,393 1,402 1,404 1,405 1,406 1,411 1,412 1,417 1,427 1,428 1,433 1,434 1,435 1,436 1,437 1,439 1,440 1,441 1,442 1,444 1,447 1,453 1,455 1,457 1,458 1,462 1,463 1,468 1,469 1,470 1,471 1,472 1,475 1,484 1,491 1,493 1,495 1,497 1,500 1,504 1,505 1,508 1,509 1,510 1,512 1,515 1,517 1,518 1,519 1,521 1,523 1,528 1,531 1,532 1,536 1,537 1,538 1,539 1,540 1,541 1,547 1,548 1,549 1,550 1,552 1,553 1,554 1,557 1,558 1,559 1,566 1,567 1,569 1,580 1,583 1,587 1,588 1,591 1,592 1,594 1,597 1,598 1,599 1,603 1,604 1,606 1,607 1,608 1,613 1,617 1,625 1,630 1,637 1,639 1,643 1,644 1,646 1,647 1,655 1,657 1,658 1,661 1,667 1,669 1,671 1,677 1,678 1,679 1,680 1,683 1,684 1,688 1,690 1,691 1,694 1,695 1,699 1,703 1,709 1,711 1,714 1,716 1,718 1,720 1,722 1,723 1,729 1,730 1,739 1,740 1,749 1,751 1,754 1,759 1,760 1,761 1,763 1,764 1,765 1,776 1,779 1,781 1,782 1,783 1,784 1,785 1,786 1,788 1,789 1,790 1,792 1,793 1,796 1,798 1,799 1,801 1,802 1,804 1,807 1,812 1,814 1,816 1,818 1,821 1,823 1,824 1,827 1,828 1,832 1,833 1,834 1,836 1,837 1,840 1,845 1,846 1,849 1,852 1,858 1,859 1,867 1,869 1,870 1,872 1,877 1,879 1,883 1,885 1,889 1,890 1,893 1,894 1,895 1,900 1,907 1,909 1,911 1,913 1}
{4 1,15 1,24 1,29 1,39 1,43 1,51 1,55 1,56 1,61 1,80 1,82 1,93 1,114 1,123 1,149 1,170 1,171 1,177 1,183 1,198 1,204 1,212 1,218 1,222 1,223 1,228 1,233 1,243 1,246 1,249 1,259 1,260 1,269 1,277 1,278 1,296 1,305 1,307 1,329 1,332 1,346 1,355 1,357 1,361 1,369 1,388 1,391 1,404 1,428 1,433 1,469 1,471 1,483 1,484 1,489 1,490 1,497 1,503 1,505 1,518 1,528 1,536 1,538 1,540 1,541 1,545 1,548 1,552 1,553 1,560 1,570 1,588 1,625 1,638 1,647 1,657 1,660 1,668 1,698 1,714 1,716 1,725 1,750 1,761 1,763 1,775 1,782 1,783 1,785 1,786 1,791 1,796 1,798 1,807 1,824 1,836 1,838 1,842 1,852 1,854 1,858 1,862 1,867 1,873 1,880 1,895 1,909 1,913 1}
{4 1,11 1,39 1,43 1,45 1,48 1,51 1,55 1,61 1,65 1,76 1,82 1,114 1,161 1,177 1,179 1,182 1,195 1,228 1,277 1,286 1,295 1,304 1,344 1,361 1,365 1,369 1,388 1,398 1,402 1,433 1,442 1,491 1,518 1,521 1,528 1,536 1,567 1,592 1,631 1,666 1,676 1,678 1,679 1,695 1,714 1,751 1,782 1,783 1,790 1,798 1,807 1,809 1,834 1,867 1,879 1,883 1,895 1,909 1}
{4 1,6 1,14 1,15 1,19 1,29 1,37 1,39 1,43 1,51 1,55 1,56 1,61 1,82 1,83 1,85 1,88 1,93 1,94 1,97 1,114 1,115 1,129 1,134 1,135 1,153 1,182 1,198 1,204 1,207 1,208 1,209 1,211 1,228 1,235 1,239 1,241 1,242 1,243 1,248 1,254 1,300 1,308 1,328 1,329 1,339 1,361 1,365 1,368 1,369 1,388 1,389 1,391 1,402 1,415 1,425 1,427 1,429 1,433 1,442 1,444 1,449 1,453 1,458 1,459 1,463 1,470 1,471 1,477 1,491 1,493 1,496 1,510 1,515 1,518 1,520 1,528 1,536 1,538 1,545 1,552 1,559 1,567 1,588 1,605 1,618 1,625 1,630 1,642 1,644 1,645 1,657 1,671 1,672 1,673 1,680 1,681 1,684 1,702 1,709 1,714 1,746 1,748 1,752 1,763 1,779 1,782 1,783 1,784 1,788 1,790 1,794 1,796 1,807 1,820 1,832 1,846 1,853 1,865 1,867 1,870 1,873 1,883 1,885 1,895 1,909 1,913 1}
{4 1,5 1,6 1,7 1,11 1,13 1,14 1,15 1,16 1,24 1,26 1,28 1,32 1,37 1,39 1,45 1,46 1,51 1,53 1,54 1,56 1,61 1,70 1,71 1,77 1,82 1,83 1,85 1,86 1,87 1,88 1,89 1,92 1,93 1,114 1,115 1,121 1,122 1,123 1,126 1,146 1,148 1,153 1,160 1,161 1,168 1,170 1,177 1,187 1,195 1,196 1,199 1,204 1,208 1,209 1,210 1,211 1,213 1,222 1,223 1,227 1,228 1,243 1,244 1,245 1,246 1,248 1,249 1,251 1,264 1,266 1,271 1,277 1,283 1,286 1,300 1,302 1,305 1,307 1,308 1,310 1,313 1,318 1,321 1,328 1,329 1,331 1,332 1,336 1,339 1,342 1,344 1,345 1,346 1,354 1,357 1,361 1,362 1,363 1,365 1,369 1,379 1,381 1,386 1,388 1,389 1,390 1,391 1,397 1,402 1,409 1,425 1,428 1,433 1,436 1,437 1,439 1,442 1,453 1,454 1,455 1,457 1,459 1,468 1,469 1,470 1,471 1,482 1,488 1,490 1,491 1,495 1,496 1,497 1,500 1,501 1,506 1,508 1,515 1,518 1,519 1,521 1,528 1,535 1,536 1,538 1,539 1,540 1,541 1,548 1,549 1,552 1,554 1,559 1,562 1,567 1,569 1,570 1,586 1,587 1,588 1,592 1,595 1,603 1,605 1,607 1,614 1,615 1,623 1,625 1,627 1,628 1,630 1,638 1,642 1,647 1,649 1,657 1,659 1,660 1,666 1,667 1,677 1,679 1,682 1,695 1,696 1,703 1,709 1,714 1,715 1,716 1,725 1,739 1,740 1,746 1,752 1,754 1,755 1,763 1,764 1,766 1,775 1,779 1,781 1,782 1,783 1,785 1,786 1,788 1,789 1,790 1,791 1,792 1,793 1,796 1,798 1,800 1,804 1,807 1,811 1,812 1,813 1,819 1,820 1,821 1,823 1,833 1,834 1,835 1,846 1,849 1,852 1,853 1,854 1,858 1,859 1,863 1,865 1,867 1,869 1,870 1,871 1,872 1,873 1,875 1,877 1,879 1,883 1,890 1,894 1,895 1,896 1,898 1,902 1,907 1,909 1,911 1,913 1}
{39 1,43 1,55 1,56 1,76 1,77 1,82 1,91 1,101 1,114 1,152 1,204 1,295 1,317 1,321 1,328 1,346 1,361 1,365 1,369 1,478 1,515 1,528 1,536 1,601 1,634 1,638 1,657 1,667 1,677 1,718 1,764 1,769 1,783 1,788 1,802 1,807 1,834 1,858 1,875 1,881 1,887 1,895 1,901 1}
{16 1,24 1,39 1,51 1,55 1,74 1,85 1,87 1,115 1,126 1,152 1,160 1,166 1,171 1,181 1,195 1,228 1,243 1,286 1,298 1,309 1,310 1,322 1,339 1,342 1,369 1,370 1,388 1,391 1,473 1,488 1,497 1,503 1,518 1,521 1,528 1,537 1,540 1,578 1,581 1,606 1,631 1,647 1,657 1,709 1,782 1,783 1,789 1,790 1,794 1,798 1,799 1,818 1,842 1,858 1,867 1,877 1,909 1,913 1}
{4 1,24 1,39 1,51 1,55 1,56 1,68 1,82 1,86 1,96 1,114 1,115 1,123 1,126 1,149 1,168 1,170 1,171 1,177 1,184 1,194 1,204 1,228 1,232 1,277 1,289 1,290 1,300 1,329 1,354 1,361 1,369 1,388 1,391 1,402 1,417 1,437 1,481 1,515 1,518 1,527 1,528 1,533 1,536 1,538 1,539 1,546 1,547 1,548 1,549 1,552 1,611 1,614 1,642 1,646 1,657 1,666 1,725 1,737 1,739 1,752 1,763 1,772 1,782 1,783 1,784 1,785 1,790 1,796 1,807 1,823 1,847 1,854 1,858 1,865 1,867 1,872 1,892 1,898 1,900 1,904 1,909 1,913 1}
{4 1,24 1,32 1,37 1,39 1,51 1,55 1,56 1,61 1,71 1,76 1,82 1,92 1,114 1,115 1,117 1,153 1,169 1,196 1,226 1,235 1,271 1,277 1,293 1,294 1,295 1,300 1,305 1,307 1,321 1,332 1,348 1,361 1,369 1,388 1,402 1,405 1,412 1,417 1,448 1,453 1,491 1,498 1,505 1,513 1,518 1,521 1,528 1,536 1,538 1,539 1,552 1,577 1,580 1,655 1,656 1,676 1,763 1,769 1,783 1,790 1,796 1,807 1,834 1,849 1,863 1,865 1,875 1,879 1,880 1,883 1,892 1,893 1,901 1,909 1,911 1}
{4 1,36 1,39 1,55 1,56 1,61 1,88 1,114 1,123 1,134 1,144 1,168 1,182 1,183 1,195 1,197 1,198 1,199 1,204 1,222 1,228 1,239 1,242 1,245 1,246 1,251 1,260 1,275 1,277 1,286 1,300 1,321 1,329 1,352 1,357 1,361 1,365 1,369 1,388 1,391 1,395 1,402 1,409 1,433 1,439 1,457 1,463 1,470 1,471 1,478 1,494 1,503 1,518 1,521 1,528 1,538 1,548 1,552 1,559 1,567 1,583 1,626 1,660 1,673 1,698 1,752 1,763 1,764 1,775 1,780 1,782 1,783 1,790 1,802 1,804 1,807 1,821 1,823 1,826 1,836 1,837 1,854 1,856 1,859 1,860 1,861 1,872 1,877 1,904 1,909 1,913 1}
{4 1,6 1,18 1,24 1,39 1,41 1,82 1,114 1,116 1,168 1,198 1,204 1,225 1,286 1,324 1,361 1,366 1,369 1,379 1,391 1,392 1,426 1,433 1,443 1,495 1,500 1,501 1,508 1,518 1,525 1,528 1,542 1,552 1,581 1,638 1,647 1,660 1,672 1,699 1,709 1,753 1,782 1,783 1,784 1,788 1,854 1,883 1,895 1,913 1}
{37 1,39 1,51 1,82 1,115 1,204 1,301 1,307 1,391 1,528 1,539 1,782 1,783 1,796 1,807 1,858 1,879 1,880 1,901 1,903 1,909 1}
{4 1,6 1,26 1,39 1,55 1,74 1,114 1,128 1,170 1,171 1,201 1,208 1,228 1,229 1,250 1,271 1,277 1,279 1,298 1,308 1,309 1,328 1,329 1,330 1,346 1,361 1,365 1,369 1,388 1,391 1,427 1,453 1,509 1,515 1,518 1,528 1,536 1,539 1,564 1,578 1,600 1,632 1,657 1,660 1,666 1,682 1,695 1,700 1,714 1,742 1,746 1,763 1,768 1,782 1,783 1,784 1,788 1,807 1,842 1,854 1,857 1,872 1,875 1,907 1,909 1,913 1}
{4 1,39 1,45 1,55 1,59 1,61 1,82 1,85 1,91 1,115 1,123 1,124 1,168 1,277 1,305 1,328 1,345 1,357 1,365 1,369 1,388 1,391 1,402 1,464 1,510 1,528 1,538 1,546 1,559 1,570 1,582 1,587 1,629 1,783 1,788 1,875 1,883 1,889 1,909 1,913 1}
{4 1,39 1,42 1,43 1,45 1,55 1,70 1,76 1,82 1,92 1,182 1,195 1,228 1,277 1,295 1,304 1,369 1,388 1,398 1,518 1,528 1,536 1,631 1,666 1,676 1,678 1,783 1,798 1,807 1,809 1,870 1,879 1,906 1,909 1}
{4 1,6 1,32 1,39 1,43 1,45 1,119 1,286 1,326 1,328 1,329 1,331 1,361 1,365 1,369 1,377 1,391 1,438 1,457 1,470 1,474 1,497 1,509 1,512 1,528 1,536 1,538 1,541 1,571 1,657 1,661 1,670 1,729 1,741 1,775 1,780 1,783 1,789 1,804 1,807 1,823 1,831 1,849 1,872 1,908 1,909 1,913 1}
{0 1,1 1,2 1,3 1,4 1,24 1,37 1,39 1,51 1,69 1,87 1,106 1,115 1,117 1,148 1,165 1,175 1,220 1,321 1,336 1,339 1,342 1,369 1,392 1,400 1,417 1,443 1,452 1,453 1,454 1,457 1,490 1,491 1,501 1,508 1,515 1,525 1,526 1,528 1,551 1,581 1,604 1,610 1,632 1,654 1,657 1,714 1,725 1,729 1,731 1,738 1,765 1,778 1,783 1,789 1,796 1,807 1,837 1,840 1,854 1,865 1,879 1,913 1}
{4 1,24 1,33 1,39 1,47 1,56 1,61 1,62 1,82 1,114 1,115 1,123 1,146 1,210 1,220 1,229 1,267 1,277 1,280 1,286 1,294 1,295 1,329 1,339 1,342 1,353 1,357 1,361 1,363 1,369 1,391 1,399 1,416 1,417 1,423 1,439 1,444 1,463 1,497 1,514 1,518 1,528 1,536 1,538 1,568 1,600 1,655 1,656 1,657 1,660 1,661 1,681 1,714 1,746 1,763 1,782 1,783 1,796 1,799 1,807 1,814 1,816 1,879 1,883 1,903 1,904 1}
{4 1,6 1,14 1,15 1,24 1,32 1,37 1,39 1,41 1,43 1,45 1,46 1,49 1,51 1,56 1,61 1,80 1,82 1,85 1,86 1,87 1,114 1,122 1,123 1,197 1,204 1,232 1,243 1,245 1,253 1,271 1,276 1,289 1,299 1,300 1,307 1,315 1,317 1,321 1,325 1,328 1,329 1,332 1,333 1,334 1,335 1,338 1,339 1,345 1,346 1,353 1,361 1,363 1,365 1,369 1,388 1,391 1,402 1,407 1,409 1,416 1,417 1,419 1,445 1,454 1,475 1,484 1,501 1,508 1,515 1,517 1,520 1,528 1,533 1,535 1,536 1,537 1,548 1,551 1,552 1,570 1,583 1,591 1,594 1,630 1,631 1,642 1,657 1,660 1,677 1,679 1,693 1,698 1,699 1,701 1,703 1,709 1,715 1,716 1,717 1,719 1,778 1,782 1,783 1,788 1,791 1,793 1,794 1,796 1,804 1,807 1,829 1,853 1,854 1,859 1,863 1,865 1,867 1,869 1,872 1,873 1,875 1,883 1,890 1,895 1,903 1,909 1,913 1}
{4 1,32 1,37 1,43 1,51 1,55 1,70 1,114 1,175 1,195 1,228 1,237 1,277 1,282 1,316 1,325 1,331 1,361 1,369 1,377 1,387 1,393 1,400 1,418 1,444 1,510 1,536 1,552 1,657 1,712 1,749 1,752 1,782 1,783 1,788 1,807 1,829 1,854 1,867 1,913 1}
{4 1,14 1,24 1,29 1,37 1,39 1,51 1,55 1,56 1,62 1,82 1,85 1,106 1,109 1,123 1,153 1,171 1,180 1,196 1,210 1,219 1,228 1,243 1,245 1,277 1,286 1,295 1,304 1,305 1,307 1,308 1,313 1,320 1,321 1,324 1,328 1,329 1,339 1,356 1,361 1,365 1,369 1,388 1,391 1,399 1,423 1,453 1,468 1,478 1,491 1,502 1,510 1,518 1,528 1,535 1,536 1,539 1,548 1,552 1,559 1,565 1,569 1,578 1,583 1,590 1,601 1,625 1,636 1,657 1,677 1,686 1,694 1,703 1,709 1,714 1,715 1,738 1,746 1,755 1,763 1,769 1,770 1,782 1,783 1,784 1,786 1,790 1,791 1,793 1,796 1,798 1,799 1,807 1,823 1,845 1,854 1,865 1,870 1,873 1,877 1,879 1,880 1,883 1,887 1,893 1,898 1,901 1,903 1,904 1,909 1}
{6 1,7 1,12 1,18 1,39 1,45 1,55 1,56 1,88 1,130 1,144 1,152 1,204 1,207 1,233 1,242 1,270 1,275 1,277 1,286 1,288 1,291 1,326 1,328 1,329 1,335 1,357 1,361 1,369 1,391 1,395 1,457 1,463 1,494 1,503 1,518 1,539 1,541 1,548 1,600 1,627 1,640 1,657 1,723 1,752 1,760 1,782 1,783 1,790 1,796 1,807 1,823 1,868 1,904 1,909 1,913 1}
{0 1,1 1,2 1,3 1,4 1,6 1,7 1,9 1,29 1,36 1,37 1,39 1,40 1,49 1,51 1,56 1,59 1,61 1,63 1,65 1,69 1,82 1,87 1,89 1,115 1,117 1,119 1,123 1,132 1,165 1,178 1,193 1,225 1,235 1,265 1,273 1,277 1,279 1,286 1,287 1,311 1,367 1,369 1,376 1,377 1,380 1,388 1,400 1,413 1,414 1,416 1,421 1,426 1,453 1,457 1,491 1,498 1,501 1,502 1,508 1,510 1,519 1,521 1,523 1,528 1,536 1,538 1,541 1,553 1,555 1,610 1,612 1,642 1,647 1,654 1,657 1,663 1,691 1,696 1,709 1,711 1,725 1,755 1,756 1,769 1,782 1,783 1,788 1,789 1,796 1,798 1,807 1,814 1,816 1,823 1,834 1,849 1,863 1,865 1,870 1,879 1,883 1,904 1,911 1,913 1}
{4 1,24 1,39 1,43 1,51 1,55 1,61 1,90 1,114 1,116 1,142 1,170 1,192 1,228 1,239 1,261 1,277 1,282 1,292 1,318 1,329 1,332 1,345 1,354 1,358 1,361 1,365 1,369 1,388 1,391 1,394 1,402 1,442 1,453 1,457 1,469 1,470 1,475 1,528 1,536 1,601 1,630 1,657 1,661 1,670 1,695 1,737 1,753 1,769 1,773 1,782 1,783 1,798 1,807 1,825 1,834 1,854 1,879 1,902 1,909 1}
{4 1,6 1,14 1,15 1,37 1,39 1,51 1,55 1,56 1,61 1,83 1,85 1,86 1,91 1,92 1,104 1,114 1,115 1,135 1,160 1,171 1,174 1,177 1,189 1,195 1,204 1,210 1,228 1,239 1,250 1,251 1,256 1,260 1,270 1,277 1,283 1,285 1,286 1,321 1,328 1,332 1,344 1,345 1,361 1,363 1,366 1,369 1,388 1,390 1,391 1,411 1,412 1,431 1,463 1,464 1,487 1,493 1,508 1,518 1,521 1,523 1,528 1,536 1,538 1,541 1,569 1,607 1,618 1,623 1,642 1,650 1,651 1,657 1,660 1,667 1,671 1,672 1,673 1,679 1,709 1,714 1,716 1,730 1,740 1,763 1,782 1,783 1,784 1,787 1,788 1,793 1,796 1,804 1,807 1,810 1,822 1,831 1,834 1,838 1,849 1,854 1,859 1,863 1,865 1,867 1,872 1,890 1,898 1,904 1,905 1,913 1}
{4 1,29 1,35 1,39 1,41 1,42 1,55 1,61 1,82 1,85 1,95 1,98 1,110 1,114 1,115 1,117 1,121 1,123 1,166 1,168 1,208 1,222 1,246 1,269 1,270 1,271 1,277 1,300 1,303 1,305 1,311 1,315 1,316 1,328 1,336 1,339 1,341 1,344 1,346 1,357 1,361 1,369 1,385 1,391 1,402 1,407 1,414 1,455 1,463 1,464 1,468 1,470 1,478 1,491 1,493 1,502 1,510 1,515 1,518 1,521 1,523 1,528 1,535 1,536 1,538 1,541 1,546 1,548 1,552 1,567 1,568 1,592 1,593 1,594 1,597 1,616 1,627 1,632 1,639 1,657 1,671 1,679 1,709 1,714 1,719 1,725 1,755 1,758 1,763 1,764 1,782 1,783 1,785 1,786 1,788 1,789 1,790 1,796 1,807 1,816 1,835 1,843 1,846 1,859 1,867 1,870 1,873 1,875 1,877 1,879 1,909 1,913 1}
{4 1,6 1,24 1,25 1,37 1,39 1,43 1,46 1,61 1,87 1,114 1,195 1,196 1,210 1,303 1,357 1,361 1,369 1,409 1,417 1,457 1,464 1,470 1,510 1,536 1,541 1,657 1,679 1,714 1,734 1,763 1,834 1,854 1,859 1,860 1,875 1,883 1,900 1,910 1}
{4 1,6 1,29 1,37 1,39 1,51 1,55 1,56 1,61 1,74 1,77 1,87 1,88 1,114 1,115 1,118 1,120 1,123 1,139 1,153 1,159 1,164 1,195 1,202 1,210 1,217 1,228 1,242 1,243 1,247 1,253 1,277 1,286 1,298 1,299 1,302 1,305 1,309 1,316 1,328 1,329 1,331 1,339 1,344 1,345 1,353 1,354 1,361 1,365 1,369 1,381 1,387 1,388 1,391 1,404 1,428 1,449 1,450 1,459 1,463 1,470 1,488 1,497 1,499 1,500 1,505 1,515 1,518 1,528 1,531 1,536 1,539 1,541 1,554 1,564 1,578 1,601 1,615 1,655 1,657 1,668 1,679 1,692 1,706 1,714 1,715 1,752 1,754 1,757 1,763 1,782 1,783 1,784 1,786 1,788 1,790 1,796 1,798 1,807 1,812 1,817 1,829 1,832 1,834 1,839 1,858 1,863 1,867 1,870 1,875 1,883 1,888 1,909 1,913 1}
{14 1,15 1,55 1,82 1,85 1,131 1,152 1,171 1,184 1,228 1,273 1,328 1,361 1,366 1,369 1,385 1,388 1,391 1,402 1,439 1,500 1,521 1,528 1,601 1,769 1,781 1,783 1,807 1,842 1,851 1,900 1,913 1}
{31 1,39 1,44 1,49 1,51 1,55 1,56 1,65 1,82 1,152 1,207 1,212 1,228 1,232 1,235 1,262 1,286 1,300 1,307 1,361 1,365 1,369 1,388 1,391 1,409 1,453 1,457 1,463 1,528 1,536 1,552 1,586 1,625 1,709 1,762 1,779 1,783 1,788 1,790 1,798 1,799 1,807 1,815 1,833 1,858 1,875 1,879 1}
{4 1,6 1,24 1,25 1,29 1,33 1,39 1,49 1,51 1,56 1,82 1,101 1,105 1,114 1,115 1,121 1,123 1,145 1,150 1,153 1,163 1,178 1,187 1,201 1,203 1,204 1,252 1,274 1,277 1,280 1,286 1,299 1,328 1,330 1,334 1,337 1,339 1,369 1,377 1,386 1,388 1,389 1,391 1,402 1,416 1,429 1,436 1,456 1,463 1,496 1,502 1,503 1,509 1,515 1,516 1,518 1,528 1,536 1,538 1,541 1,548 1,552 1,580 1,598 1,601 1,603 1,608 1,612 1,615 1,619 1,651 1,657 1,658 1,659 1,660 1,661 1,674 1,687 1,696 1,701 1,702 1,714 1,723 1,749 1,756 1,761 1,762 1,763 1,782 1,783 1,784 1,789 1,790 1,796 1,798 1,802 1,807 1,809 1,815 1,824 1,825 1,851 1,855 1,857 1,859 1,870 1,879 1,883 1,908 1,913 1}
{4 1,11 1,39 1,51 1,55 1,152 1,204 1,216 1,237 1,238 1,283 1,337 1,361 1,369 1,389 1,391 1,403 1,433 1,449 1,453 1,480 1,497 1,500 1,528 1,533 1,539 1,629 1,650 1,657 1,709 1,711 1,725 1,763 1,782 1,783 1,788 1,796 1,803 1,823 1,835 1,854 1,875 1,883 1,909 1,913 1}
{4 1,14 1,39 1,58 1,61 1,70 1,120 1,122 1,235 1,268 1,286 1,294 1,301 1,321 1,332 1,339 1,361 1,365 1,369 1,418 1,419 1,497 1,513 1,515 1,528 1,538 1,541 1,548 1,553 1,570 1,573 1,638 1,657 1,715 1,720 1,763 1,783 1,784 1,790 1,834 1,854 1,856 1,865 1,869 1,875 1,886 1}
{4 1,6 1,37 1,45 1,55 1,56 1,82 1,85 1,135 1,153 1,154 1,228 1,239 1,250 1,256 1,277 1,286 1,328 1,361 1,363 1,364 1,369 1,388 1,391 1,412 1,441 1,468 1,528 1,538 1,541 1,545 1,588 1,616 1,657 1,671 1,672 1,673 1,694 1,703 1,730 1,783 1,784 1,785 1,793 1,796 1,804 1,807 1,834 1,867 1,870 1,883 1,913 1}
{4 1,39 1,55 1,56 1,60 1,95 1,103 1,114 1,204 1,237 1,238 1,243 1,264 1,277 1,311 1,341 1,369 1,389 1,403 1,411 1,419 1,420 1,433 1,438 1,442 1,449 1,480 1,491 1,528 1,536 1,657 1,686 1,699 1,711 1,714 1,725 1,726 1,742 1,753 1,763 1,782 1,783 1,790 1,796 1,807 1,825 1,834 1,854 1,865 1,913 1}
{4 1,6 1,9 1,17 1,24 1,28 1,37 1,39 1,43 1,45 1,46 1,51 1,55 1,56 1,61 1,75 1,82 1,83 1,85 1,92 1,93 1,94 1,101 1,102 1,114 1,115 1,123 1,128 1,130 1,152 1,168 1,177 1,181 1,195 1,196 1,198 1,204 1,206 1,207 1,208 1,210 1,211 1,213 1,222 1,228 1,241 1,243 1,250 1,267 1,277 1,301 1,308 1,317 1,318 1,322 1,328 1,329 1,330 1,332 1,333 1,344 1,345 1,346 1,347 1,357 1,361 1,365 1,369 1,377 1,388 1,389 1,391 1,402 1,409 1,417 1,423 1,427 1,433 1,434 1,435 1,446 1,450 1,453 1,456 1,457 1,464 1,468 1,469 1,470 1,471 1,478 1,491 1,495 1,507 1,515 1,518 1,524 1,528 1,536 1,538 1,539 1,541 1,552 1,553 1,560 1,569 1,578 1,580 1,584 1,585 1,586 1,588 1,591 1,593 1,614 1,615 1,616 1,618 1,623 1,625 1,627 1,629 1,630 1,657 1,659 1,676 1,683 1,700 1,703 1,709 1,716 1,733 1,744 1,752 1,755 1,761 1,763 1,768 1,769 1,775 1,779 1,782 1,783 1,784 1,786 1,789 1,790 1,793 1,796 1,799 1,807 1,817 1,833 1,849 1,854 1,856 1,859 1,863 1,865 1,867 1,869 1,871 1,872 1,875 1,877 1,879 1,883 1,895 1,899 1,903 1,904 1,906 1,909 1,910 1,911 1}
{4 1,6 1,14 1,24 1,34 1,39 1,45 1,46 1,54 1,56 1,61 1,114 1,123 1,168 1,182 1,196 1,204 1,210 1,220 1,233 1,253 1,271 1,300 1,310 1,321 1,328 1,333 1,336 1,342 1,355 1,361 1,365 1,369 1,385 1,388 1,389 1,391 1,419 1,453 1,497 1,513 1,518 1,528 1,538 1,548 1,552 1,553 1,557 1,583 1,660 1,705 1,709 1,739 1,740 1,763 1,768 1,782 1,783 1,786 1,788 1,796 1,800 1,804 1,807 1,813 1,834 1,841 1,842 1,846 1,849 1,854 1,856 1,857 1,859 1,865 1,867 1,875 1,888 1,913 1}
{4 1,32 1,37 1,51 1,82 1,85 1,92 1,98 1,114 1,146 1,249 1,252 1,265 1,277 1,307 1,328 1,361 1,365 1,385 1,388 1,392 1,402 1,409 1,420 1,469 1,470 1,501 1,515 1,616 1,630 1,667 1,668 1,695 1,716 1,719 1,788 1,790 1,796 1,798 1,807 1,831 1,863 1,867 1,873 1,875 1,888 1,895 1,902 1,913 1}
{43 1,82 1,332 1,448 1,491 1,510 1,536 1,657 1,703 1,745 1,783 1,895 1}
{230 1,369 1,388 1,913 1}
{4 1,14 1,29 1,39 1,43 1,51 1,54 1,55 1,56 1,61 1,82 1,95 1,98 1,148 1,152 1,155 1,204 1,210 1,256 1,267 1,277 1,286 1,301 1,311 1,341 1,357 1,361 1,365 1,368 1,369 1,385 1,386 1,388 1,391 1,401 1,418 1,425 1,431 1,443 1,491 1,497 1,513 1,516 1,521 1,528 1,535 1,541 1,542 1,565 1,583 1,591 1,603 1,615 1,625 1,657 1,659 1,664 1,693 1,712 1,725 1,746 1,753 1,763 1,782 1,783 1,788 1,789 1,790 1,791 1,799 1,807 1,837 1,846 1,849 1,850 1,869 1,873 1,879 1,909 1,913 1}
{4 1,6 1,7 1,17 1,19 1,27 1,37 1,39 1,43 1,51 1,56 1,61 1,66 1,82 1,85 1,86 1,87 1,89 1,91 1,92 1,93 1,107 1,109 1,114 1,115 1,126 1,136 1,140 1,153 1,162 1,178 1,180 1,181 1,207 1,208 1,210 1,241 1,244 1,271 1,277 1,286 1,289 1,299 1,307 1,308 1,310 1,313 1,321 1,326 1,328 1,329 1,332 1,344 1,345 1,347 1,349 1,361 1,365 1,369 1,386 1,388 1,391 1,402 1,417 1,423 1,425 1,429 1,430 1,439 1,446 1,456 1,457 1,464 1,467 1,491 1,493 1,495 1,497 1,514 1,518 1,519 1,524 1,528 1,536 1,538 1,541 1,552 1,560 1,567 1,580 1,583 1,596 1,601 1,623 1,627 1,629 1,657 1,659 1,660 1,667 1,676 1,679 1,695 1,696 1,699 1,701 1,709 1,731 1,739 1,746 1,763 1,779 1,782 1,783 1,788 1,790 1,796 1,800 1,807 1,816 1,823 1,829 1,845 1,849 1,852 1,854 1,863 1,867 1,872 1,875 1,877 1,883 1,895 1,903 1,910 1}
{4 1,39 1,51 1,83 1,92 1,207 1,243 1,277 1,365 1,404 1,449 1,463 1,468 1,470 1,497 1,518 1,528 1,532 1,541 1,714 1,783 1,786 1,821 1,867 1,883 1,892 1,909 1,913 1}
{4 1,6 1,14 1,37 1,44 1,46 1,47 1,54 1,56 1,82 1,92 1,114 1,115 1,128 1,195 1,229 1,233 1,280 1,306 1,310 1,328 1,329 1,330 1,335 1,339 1,357 1,361 1,369 1,376 1,386 1,391 1,417 1,420 1,468 1,483 1,501 1,506 1,510 1,513 1,515 1,521 1,528 1,536 1,538 1,630 1,632 1,659 1,667 1,681 1,682 1,697 1,709 1,714 1,716 1,720 1,723 1,725 1,763 1,779 1,782 1,783 1,788 1,791 1,796 1,800 1,807 1,824 1,854 1,867 1,870 1,895 1,913 1}
{4 1,15 1,39 1,41 1,55 1,61 1,66 1,85 1,92 1,97 1,115 1,127 1,152 1,170 1,207 1,211 1,213 1,235 1,243 1,273 1,307 1,308 1,311 1,320 1,332 1,345 1,350 1,361 1,365 1,369 1,386 1,388 1,391 1,428 1,433 1,436 1,439 1,442 1,445 1,474 1,478 1,479 1,491 1,502 1,505 1,508 1,509 1,512 1,515 1,518 1,528 1,535 1,538 1,553 1,561 1,562 1,592 1,657 1,667 1,679 1,685 1,709 1,716 1,744 1,775 1,779 1,783 1,788 1,793 1,796 1,801 1,804 1,807 1,814 1,854 1,865 1,867 1,869 1,875 1,904 1,909 1}
{4 1,55 1,56 1,82 1,114 1,204 1,228 1,229 1,243 1,275 1,277 1,332 1,361 1,365 1,369 1,379 1,388 1,391 1,409 1,439 1,468 1,472 1,473 1,478 1,494 1,508 1,518 1,521 1,528 1,536 1,541 1,615 1,626 1,657 1,719 1,782 1,783 1,788 1,800 1,807 1,840 1,868 1,909 1,913 1}
{4 1,37 1,39 1,51 1,55 1,69 1,114 1,115 1,196 1,220 1,264 1,311 1,339 1,342 1,361 1,369 1,388 1,391 1,400 1,441 1,454 1,501 1,525 1,528 1,529 1,632 1,654 1,711 1,714 1,725 1,731 1,738 1,747 1,763 1,765 1,782 1,783 1,793 1,840 1,854 1,858 1,865 1,913 1}
{4 1,24 1,32 1,41 1,46 1,55 1,82 1,94 1,100 1,152 1,219 1,228 1,244 1,277 1,306 1,329 1,332 1,361 1,365 1,369 1,433 1,497 1,508 1,510 1,514 1,537 1,539 1,560 1,570 1,630 1,631 1,635 1,636 1,659 1,682 1,763 1,783 1,784 1,790 1,798 1,807 1,865 1,875 1,877 1,880 1,883 1,887 1,895 1,907 1}
{4 1,5 1,31 1,39 1,51 1,56 1,59 1,61 1,70 1,82 1,85 1,93 1,114 1,123 1,135 1,197 1,227 1,256 1,277 1,286 1,300 1,305 1,307 1,309 1,326 1,329 1,352 1,357 1,361 1,369 1,388 1,402 1,404 1,416 1,425 1,441 1,449 1,453 1,470 1,491 1,495 1,497 1,518 1,528 1,529 1,536 1,538 1,539 1,567 1,607 1,615 1,621 1,631 1,645 1,657 1,680 1,705 1,714 1,752 1,764 1,776 1,782 1,783 1,788 1,793 1,796 1,804 1,807 1,812 1,835 1,841 1,858 1,862 1,863 1,869 1,872 1,879 1,883 1,884 1,885 1,891 1,904 1,913 1}
{0 1,1 1,2 1,3 1,4 1,8 1,10 1,14 1,24 1,37 1,38 1,39 1,49 1,51 1,52 1,56 1,61 1,68 1,69 1,87 1,93 1,106 1,115 1,116 1,117 1,138 1,164 1,165 1,174 1,177 1,178 1,183 1,184 1,191 1,193 1,199 1,220 1,222 1,225 1,252 1,258 1,277 1,286 1,291 1,293 1,299 1,314 1,315 1,320 1,321 1,329 1,334 1,355 1,361 1,369 1,388 1,391 1,392 1,393 1,400 1,401 1,408 1,420 1,432 1,441 1,447 1,451 1,453 1,456 1,468 1,484 1,485 1,487 1,491 1,501 1,504 1,508 1,509 1,515 1,518 1,528 1,529 1,536 1,538 1,544 1,559 1,561 1,568 1,592 1,597 1,602 1,605 1,610 1,614 1,620 1,622 1,629 1,635 1,654 1,655 1,657 1,672 1,677 1,685 1,690 1,703 1,714 1,725 1,726 1,729 1,731 1,738 1,753 1,761 1,776 1,777 1,779 1,782 1,783 1,789 1,796 1,802 1,804 1,807 1,816 1,840 1,844 1,854 1,860 1,863 1,865 1,869 1,883 1,884 1,885 1,913 1}
{4 1,14 1,37 1,39 1,43 1,44 1,55 1,61 1,95 1,120 1,228 1,235 1,286 1,301 1,308 1,332 1,339 1,361 1,365 1,369 1,383 1,409 1,418 1,479 1,513 1,515 1,528 1,538 1,548 1,570 1,573 1,638 1,657 1,720 1,782 1,783 1,823 1,834 1,854 1}
{4 1,5 1,51 1,74 1,82 1,118 1,139 1,201 1,204 1,217 1,228 1,238 1,242 1,243 1,284 1,298 1,309 1,360 1,365 1,381 1,388 1,391 1,441 1,457 1,469 1,499 1,509 1,515 1,521 1,528 1,536 1,578 1,601 1,616 1,692 1,695 1,706 1,739 1,757 1,782 1,783 1,786 1,796 1,807 1,812 1,824 1,840 1,859 1,868 1,879 1,884 1,890 1,904 1,913 1}
{0 1,1 1,2 1,3 1,4 1,6 1,10 1,12 1,29 1,37 1,39 1,49 1,51 1,56 1,61 1,63 1,69 1,77 1,82 1,83 1,86 1,87 1,93 1,115 1,117 1,119 1,132 1,160 1,163 1,165 1,175 1,178 1,192 1,214 1,220 1,225 1,226 1,254 1,260 1,273 1,274 1,277 1,286 1,292 1,314 1,329 1,357 1,368 1,369 1,377 1,380 1,387 1,388 1,391 1,392 1,396 1,400 1,404 1,414 1,420 1,421 1,427 1,445 1,453 1,454 1,457 1,481 1,491 1,501 1,502 1,508 1,509 1,528 1,536 1,538 1,541 1,555 1,559 1,568 1,607 1,610 1,612 1,639 1,642 1,645 1,654 1,657 1,659 1,663 1,673 1,674 1,691 1,714 1,725 1,749 1,765 1,782 1,783 1,784 1,786 1,788 1,789 1,790 1,796 1,798 1,801 1,802 1,804 1,805 1,807 1,823 1,828 1,836 1,838 1,850 1,854 1,859 1,861 1,863 1,866 1,869 1,872 1,879 1,883 1,903 1,913 1}
{4 1,12 1,16 1,22 1,24 1,33 1,39 1,51 1,62 1,73 1,82 1,97 1,101 1,105 1,108 1,109 1,114 1,119 1,141 1,145 1,151 1,173 1,203 1,206 1,226 1,233 1,246 1,267 1,277 1,288 1,356 1,361 1,369 1,388 1,398 1,399 1,412 1,423 1,439 1,462 1,476 1,478 1,497 1,502 1,509 1,514 1,517 1,521 1,528 1,554 1,571 1,572 1,579 1,584 1,635 1,636 1,661 1,669 1,680 1,681 1,686 1,703 1,707 1,724 1,734 1,783 1,788 1,790 1,807 1,815 1,851 1,866 1,867 1,874 1,879 1,880 1,883 1,893 1,901 1,903 1,908 1,910 1}
{4 1,6 1,32 1,39 1,43 1,46 1,51 1,55 1,56 1,65 1,74 1,83 1,85 1,88 1,104 1,115 1,126 1,171 1,210 1,228 1,245 1,266 1,271 1,298 1,302 1,307 1,309 1,329 1,332 1,334 1,345 1,361 1,368 1,369 1,386 1,388 1,391 1,433 1,445 1,449 1,470 1,474 1,488 1,491 1,493 1,502 1,518 1,528 1,536 1,541 1,553 1,570 1,578 1,580 1,628 1,630 1,631 1,674 1,678 1,688 1,714 1,720 1,739 1,763 1,779 1,782 1,783 1,788 1,789 1,796 1,804 1,807 1,810 1,820 1,836 1,842 1,854 1,865 1,867 1,870 1,875 1,877 1,883 1,913 1}
{4 1,6 1,18 1,26 1,37 1,39 1,45 1,55 1,114 1,123 1,135 1,172 1,177 1,185 1,213 1,239 1,304 1,307 1,361 1,365 1,369 1,382 1,388 1,391 1,409 1,433 1,453 1,489 1,510 1,536 1,567 1,627 1,630 1,667 1,669 1,715 1,716 1,725 1,751 1,782 1,783 1,788 1,796 1,807 1,826 1,854 1,869 1,873 1,913 1}
{4 1,16 1,29 1,39 1,43 1,45 1,61 1,75 1,76 1,88 1,106 1,114 1,115 1,134 1,182 1,195 1,277 1,286 1,294 1,304 1,313 1,328 1,331 1,332 1,345 1,349 1,361 1,369 1,388 1,391 1,398 1,402 1,417 1,444 1,449 1,454 1,470 1,491 1,493 1,497 1,506 1,515 1,518 1,528 1,536 1,552 1,585 1,631 1,657 1,660 1,676 1,678 1,681 1,682 1,715 1,716 1,782 1,783 1,790 1,809 1,846 1,854 1,867 1,872 1,883 1}
{4 1,7 1,14 1,32 1,37 1,39 1,52 1,56 1,61 1,93 1,114 1,115 1,117 1,123 1,128 1,129 1,152 1,153 1,174 1,177 1,195 1,210 1,222 1,242 1,256 1,277 1,286 1,291 1,293 1,296 1,329 1,345 1,361 1,363 1,364 1,369 1,387 1,388 1,391 1,402 1,410 1,433 1,471 1,493 1,497 1,515 1,518 1,528 1,534 1,588 1,597 1,605 1,662 1,673 1,679 1,681 1,714 1,715 1,741 1,763 1,773 1,777 1,782 1,783 1,788 1,790 1,794 1,796 1,805 1,807 1,832 1,834 1,854 1,858 1,859 1,867 1,872 1,873 1,883 1,884 1,909 1,913 1}
{4 1,11 1,39 1,51 1,152 1,204 1,216 1,283 1,337 1,353 1,361 1,389 1,453 1,497 1,500 1,515 1,518 1,528 1,533 1,536 1,539 1,540 1,550 1,629 1,725 1,754 1,763 1,783 1,788 1,796 1,798 1,803 1,823 1,832 1,835 1,859 1,869 1,913 1}
{4 1,11 1,17 1,19 1,37 1,39 1,43 1,44 1,55 1,56 1,61 1,83 1,85 1,87 1,88 1,89 1,92 1,93 1,101 1,115 1,123 1,127 1,177 1,181 1,196 1,198 1,207 1,208 1,210 1,220 1,224 1,228 1,244 1,250 1,277 1,286 1,300 1,303 1,304 1,307 1,308 1,310 1,321 1,326 1,328 1,329 1,332 1,344 1,345 1,358 1,361 1,365 1,368 1,369 1,388 1,391 1,417 1,423 1,427 1,428 1,433 1,434 1,435 1,442 1,446 1,453 1,456 1,470 1,478 1,491 1,500 1,512 1,518 1,524 1,528 1,529 1,535 1,536 1,541 1,552 1,578 1,584 1,585 1,618 1,623 1,630 1,657 1,660 1,676 1,679 1,680 1,687 1,703 1,709 1,744 1,746 1,763 1,779 1,782 1,783 1,784 1,786 1,787 1,788 1,790 1,796 1,804 1,807 1,834 1,849 1,854 1,863 1,865 1,867 1,870 1,872 1,875 1,883 1,884 1,887 1,890 1,895 1,896 1,903 1,904 1,906 1,909 1}
{4 1,6 1,37 1,39 1,45 1,47 1,55 1,56 1,61 1,82 1,85 1,93 1,114 1,116 1,123 1,135 1,148 1,152 1,153 1,154 1,168 1,170 1,171 1,175 1,204 1,210 1,214 1,228 1,239 1,245 1,250 1,256 1,273 1,277 1,286 1,296 1,320 1,321 1,328 1,329 1,332 1,354 1,357 1,361 1,363 1,364 1,369 1,370 1,380 1,383 1,388 1,391 1,412 1,425 1,441 1,468 1,496 1,516 1,518 1,528 1,532 1,538 1,539 1,541 1,545 1,549 1,580 1,588 1,604 1,605 1,611 1,616 1,623 1,657 1,662 1,671 1,672 1,673 1,694 1,703 1,716 1,720 1,729 1,730 1,752 1,762 1,763 1,766 1,782 1,783 1,784 1,785 1,788 1,790 1,793 1,796 1,799 1,804 1,807 1,834 1,836 1,849 1,854 1,856 1,859 1,867 1,869 1,870 1,883 1,884 1,906 1,913 1}
{4 1,6 1,18 1,39 1,55 1,56 1,60 1,82 1,85 1,92 1,95 1,98 1,103 1,114 1,115 1,116 1,168 1,204 1,225 1,264 1,271 1,277 1,286 1,311 1,329 1,341 1,361 1,369 1,385 1,391 1,403 1,411 1,414 1,419 1,420 1,438 1,442 1,468 1,491 1,500 1,501 1,502 1,508 1,518 1,525 1,528 1,536 1,542 1,548 1,581 1,638 1,660 1,672 1,686 1,699 1,709 1,725 1,726 1,742 1,752 1,753 1,769 1,779 1,783 1,784 1,788 1,790 1,796 1,807 1,825 1,840 1,841 1,854 1,865 1,870 1,913 1}
{4 1,39 1,55 1,61 1,82 1,109 1,115 1,171 1,173 1,228 1,348 1,349 1,369 1,391 1,393 1,426 1,435 1,442 1,477 1,478 1,515 1,536 1,577 1,657 1,704 1,709 1,782 1,783 1,796 1,807 1,823 1,834 1,867 1,880 1,883 1}
{4 1,14 1,24 1,28 1,30 1,51 1,56 1,114 1,123 1,199 1,270 1,277 1,331 1,332 1,361 1,365 1,388 1,391 1,439 1,468 1,491 1,518 1,528 1,532 1,657 1,679 1,709 1,779 1,781 1,782 1,788 1,804 1,807 1,819 1,821 1,823 1,909 1,911 1,913 1}
{4 1,6 1,14 1,24 1,29 1,32 1,37 1,39 1,42 1,49 1,55 1,56 1,64 1,69 1,82 1,86 1,123 1,128 1,148 1,152 1,155 1,210 1,211 1,222 1,243 1,264 1,277 1,286 1,300 1,311 1,329 1,347 1,354 1,357 1,361 1,365 1,369 1,382 1,386 1,388 1,391 1,392 1,399 1,400 1,401 1,402 1,409 1,427 1,434 1,453 1,458 1,464 1,475 1,501 1,528 1,536 1,541 1,542 1,543 1,555 1,560 1,592 1,615 1,617 1,654 1,679 1,683 1,695 1,709 1,719 1,752 1,755 1,763 1,779 1,782 1,783 1,785 1,789 1,796 1,807 1,851 1,854 1,856 1,859 1,895 1,904 1,913 1}
{4 1,17 1,19 1,29 1,32 1,39 1,44 1,51 1,56 1,61 1,71 1,85 1,94 1,95 1,98 1,102 1,109 1,114 1,115 1,122 1,123 1,127 1,134 1,152 1,196 1,210 1,220 1,224 1,228 1,240 1,277 1,308 1,314 1,321 1,328 1,329 1,332 1,345 1,361 1,369 1,385 1,388 1,391 1,394 1,428 1,433 1,437 1,468 1,478 1,491 1,500 1,518 1,524 1,528 1,536 1,541 1,547 1,552 1,567 1,577 1,583 1,584 1,585 1,657 1,680 1,708 1,709 1,714 1,737 1,741 1,744 1,745 1,763 1,777 1,782 1,783 1,784 1,786 1,790 1,796 1,799 1,804 1,807 1,834 1,842 1,849 1,854 1,863 1,865 1,869 1,875 1,903 1}
{4 1,7 1,31 1,37 1,39 1,41 1,43 1,51 1,55 1,56 1,61 1,66 1,82 1,83 1,85 1,88 1,91 1,93 1,94 1,106 1,114 1,115 1,123 1,135 1,144 1,146 1,153 1,165 1,198 1,204 1,207 1,208 1,209 1,210 1,211 1,228 1,241 1,250 1,254 1,259 1,271 1,277 1,286 1,300 1,303 1,308 1,313 1,328 1,329 1,357 1,361 1,365 1,368 1,369 1,383 1,388 1,391 1,392 1,402 1,407 1,410 1,415 1,428 1,429 1,433 1,453 1,457 1,458 1,463 1,470 1,471 1,474 1,491 1,493 1,496 1,510 1,518 1,520 1,528 1,532 1,536 1,538 1,541 1,545 1,551 1,552 1,554 1,558 1,592 1,630 1,642 1,657 1,660 1,667 1,672 1,673 1,677 1,679 1,680 1,681 1,684 1,693 1,702 1,707 1,709 1,714 1,717 1,746 1,763 1,768 1,777 1,778 1,779 1,782 1,783 1,784 1,788 1,789 1,790 1,793 1,796 1,798 1,800 1,807 1,835 1,859 1,864 1,865 1,867 1,869 1,870 1,873 1,875 1,883 1,890 1,895 1,898 1,907 1,909 1,913 1}
{4 1,21 1,29 1,39 1,40 1,50 1,51 1,56 1,61 1,65 1,68 1,82 1,89 1,97 1,174 1,178 1,182 1,214 1,277 1,278 1,286 1,287 1,355 1,369 1,380 1,435 1,468 1,485 1,493 1,515 1,528 1,536 1,541 1,543 1,591 1,663 1,688 1,697 1,711 1,714 1,725 1,761 1,783 1,807 1,823 1,913 1}
{4 1,28 1,39 1,51 1,53 1,55 1,76 1,82 1,87 1,127 1,152 1,196 1,208 1,210 1,237 1,239 1,277 1,300 1,302 1,326 1,329 1,332 1,344 1,345 1,357 1,361 1,365 1,369 1,388 1,402 1,409 1,424 1,449 1,459 1,463 1,481 1,488 1,491 1,493 1,495 1,497 1,504 1,518 1,520 1,524 1,528 1,538 1,539 1,552 1,603 1,657 1,667 1,670 1,714 1,746 1,753 1,763 1,779 1,782 1,783 1,784 1,785 1,789 1,790 1,807 1,829 1,867 1,869 1,875 1,879 1,880 1,883 1,885 1,896 1,909 1}
{4 1,16 1,51 1,55 1,56 1,92 1,114 1,116 1,129 1,152 1,171 1,210 1,214 1,228 1,251 1,256 1,260 1,296 1,320 1,361 1,369 1,370 1,380 1,388 1,411 1,464 1,518 1,523 1,528 1,541 1,603 1,618 1,651 1,655 1,662 1,672 1,673 1,752 1,762 1,763 1,782 1,783 1,788 1,793 1,807 1,834 1,838 1,849 1,863 1,883 1,902 1,913 1}
{4 1,6 1,18 1,24 1,25 1,29 1,37 1,39 1,41 1,42 1,45 1,51 1,55 1,56 1,61 1,82 1,85 1,91 1,92 1,114 1,120 1,121 1,123 1,128 1,154 1,168 1,183 1,184 1,204 1,228 1,239 1,267 1,271 1,273 1,277 1,286 1,292 1,300 1,305 1,307 1,308 1,322 1,329 1,336 1,338 1,345 1,354 1,358 1,361 1,365 1,369 1,388 1,391 1,402 1,404 1,415 1,425 1,440 1,444 1,456 1,457 1,478 1,488 1,491 1,497 1,509 1,510 1,512 1,518 1,521 1,528 1,536 1,542 1,552 1,601 1,607 1,612 1,616 1,680 1,690 1,714 1,723 1,728 1,746 1,748 1,754 1,783 1,785 1,788 1,790 1,796 1,807 1,823 1,847 1,849 1,851 1,854 1,859 1,861 1,863 1,865 1,872 1,874 1,875 1,878 1,879 1,883 1,888 1,895 1,903 1,904 1,909 1,911 1,913 1}
{4 1,16 1,61 1,86 1,115 1,277 1,296 1,347 1,349 1,353 1,393 1,464 1,536 1,656 1,763 1,783 1,784 1,809 1,887 1}
{4 1,29 1,37 1,51 1,56 1,82 1,115 1,123 1,183 1,205 1,277 1,361 1,369 1,388 1,391 1,528 1,536 1,548 1,620 1,669 1,766 1,782 1,783 1,807 1,840 1,873 1,883 1,909 1,911 1,913 1}
{4 1,6 1,43 1,56 1,82 1,136 1,168 1,174 1,225 1,244 1,286 1,336 1,369 1,372 1,377 1,383 1,388 1,470 1,495 1,497 1,518 1,528 1,541 1,548 1,587 1,609 1,628 1,644 1,683 1,712 1,715 1,761 1,782 1,783 1,796 1,858 1,879 1,913 1}
{4 1,6 1,16 1,19 1,24 1,31 1,39 1,43 1,51 1,54 1,56 1,61 1,71 1,72 1,80 1,82 1,83 1,92 1,106 1,109 1,114 1,120 1,123 1,146 1,152 1,180 1,187 1,188 1,208 1,249 1,260 1,264 1,277 1,294 1,295 1,300 1,304 1,307 1,308 1,328 1,329 1,332 1,336 1,344 1,345 1,357 1,361 1,365 1,368 1,369 1,388 1,402 1,423 1,424 1,425 1,426 1,437 1,444 1,446 1,456 1,464 1,470 1,478 1,493 1,505 1,507 1,515 1,516 1,521 1,528 1,536 1,539 1,541 1,548 1,560 1,574 1,575 1,576 1,577 1,585 1,586 1,603 1,625 1,631 1,657 1,667 1,679 1,680 1,703 1,713 1,735 1,752 1,763 1,767 1,775 1,782 1,783 1,786 1,788 1,790 1,796 1,798 1,804 1,807 1,811 1,823 1,834 1,837 1,858 1,859 1,863 1,867 1,873 1,875 1,879 1,883 1,890 1,896 1,909 1}
{4 1,6 1,24 1,31 1,32 1,37 1,39 1,41 1,43 1,44 1,45 1,46 1,55 1,56 1,61 1,71 1,83 1,85 1,114 1,121 1,144 1,152 1,153 1,169 1,181 1,196 1,207 1,212 1,224 1,228 1,229 1,233 1,239 1,247 1,248 1,253 1,264 1,275 1,277 1,286 1,305 1,310 1,313 1,315 1,321 1,328 1,329 1,330 1,335 1,339 1,353 1,358 1,361 1,369 1,386 1,388 1,390 1,391 1,409 1,441 1,453 1,458 1,470 1,494 1,497 1,508 1,515 1,518 1,528 1,535 1,536 1,538 1,545 1,587 1,595 1,626 1,638 1,645 1,666 1,667 1,673 1,674 1,682 1,698 1,703 1,709 1,714 1,752 1,758 1,760 1,762 1,763 1,782 1,783 1,786 1,788 1,791 1,797 1,802 1,803 1,804 1,805 1,807 1,819 1,821 1,832 1,834 1,835 1,837 1,840 1,846 1,853 1,854 1,856 1,859 1,864 1,869 1,885 1,890 1,913 1}
{4 1,6 1,14 1,37 1,39 1,49 1,56 1,61 1,77 1,79 1,82 1,115 1,119 1,132 1,156 1,163 1,175 1,194 1,203 1,214 1,225 1,236 1,271 1,277 1,284 1,286 1,328 1,329 1,332 1,369 1,384 1,386 1,388 1,391 1,412 1,426 1,440 1,452 1,453 1,457 1,491 1,502 1,516 1,528 1,536 1,541 1,547 1,555 1,561 1,596 1,597 1,641 1,647 1,649 1,650 1,657 1,672 1,674 1,710 1,712 1,722 1,725 1,756 1,761 1,762 1,767 1,771 1,779 1,782 1,783 1,801 1,802 1,807 1,814 1,825 1,840 1,870 1,872 1,879 1,883 1,904 1,913 1}
{4 1,5 1,24 1,29 1,37 1,39 1,41 1,47 1,51 1,54 1,55 1,56 1,61 1,62 1,82 1,85 1,87 1,92 1,109 1,114 1,123 1,141 1,145 1,153 1,173 1,195 1,203 1,210 1,218 1,228 1,243 1,244 1,262 1,271 1,277 1,294 1,295 1,305 1,308 1,313 1,324 1,325 1,328 1,336 1,339 1,356 1,361 1,365 1,369 1,388 1,391 1,399 1,409 1,417 1,423 1,439 1,453 1,458 1,464 1,468 1,476 1,478 1,495 1,497 1,502 1,508 1,518 1,528 1,529 1,530 1,536 1,538 1,541 1,548 1,552 1,565 1,578 1,583 1,657 1,677 1,695 1,703 1,709 1,724 1,738 1,746 1,763 1,769 1,770 1,782 1,783 1,785 1,788 1,790 1,792 1,793 1,796 1,799 1,804 1,807 1,814 1,858 1,863 1,865 1,870 1,874 1,875 1,877 1,879 1,882 1,883 1,889 1,898 1,901 1,903 1,904 1,909 1}
{4 1,6 1,21 1,37 1,39 1,44 1,56 1,107 1,115 1,117 1,159 1,165 1,204 1,207 1,222 1,265 1,277 1,288 1,292 1,334 1,354 1,357 1,361 1,369 1,387 1,388 1,391 1,392 1,409 1,455 1,510 1,518 1,525 1,528 1,536 1,555 1,573 1,587 1,627 1,642 1,657 1,714 1,743 1,781 1,782 1,783 1,788 1,789 1,793 1,796 1,807 1,835 1,836 1,854 1,867 1,872 1,893 1,903 1,913 1}
{4 1,6 1,9 1,24 1,39 1,55 1,65 1,82 1,97 1,115 1,140 1,152 1,183 1,200 1,210 1,243 1,246 1,286 1,307 1,315 1,329 1,344 1,357 1,361 1,363 1,369 1,402 1,437 1,453 1,457 1,460 1,470 1,493 1,506 1,518 1,528 1,535 1,562 1,587 1,592 1,594 1,627 1,657 1,667 1,671 1,714 1,725 1,744 1,763 1,775 1,781 1,782 1,783 1,784 1,790 1,796 1,800 1,807 1,821 1,837 1,854 1,859 1,865 1,867 1,875 1,877 1,879 1,895 1,909 1,913 1}
{4 1,14 1,29 1,55 1,71 1,123 1,173 1,204 1,246 1,277 1,321 1,329 1,332 1,357 1,361 1,365 1,369 1,396 1,402 1,409 1,428 1,437 1,448 1,495 1,508 1,657 1,666 1,782 1,783 1,790 1,793 1,796 1,807 1,809 1,833 1,853 1,867 1,880 1,883 1,906 1,909 1}
{4 1,14 1,24 1,55 1,68 1,116 1,128 1,135 1,152 1,214 1,277 1,286 1,296 1,320 1,345 1,369 1,370 1,380 1,391 1,402 1,491 1,528 1,534 1,623 1,662 1,681 1,762 1,779 1,783 1,811 1,854 1,863 1,872 1,873 1,913 1}
{4 1,32 1,37 1,51 1,55 1,56 1,77 1,82 1,85 1,92 1,114 1,146 1,149 1,171 1,207 1,228 1,249 1,252 1,277 1,286 1,307 1,317 1,326 1,328 1,329 1,357 1,361 1,365 1,369 1,383 1,388 1,391 1,402 1,420 1,433 1,469 1,470 1,501 1,515 1,528 1,536 1,552 1,616 1,630 1,667 1,668 1,695 1,716 1,719 1,783 1,788 1,790 1,796 1,807 1,863 1,867 1,873 1,875 1,888 1,895 1,913 1}
{4 1,11 1,14 1,16 1,19 1,29 1,39 1,41 1,55 1,61 1,70 1,81 1,82 1,91 1,114 1,115 1,121 1,123 1,137 1,172 1,173 1,182 1,207 1,209 1,213 1,223 1,228 1,239 1,256 1,277 1,294 1,295 1,300 1,301 1,307 1,330 1,332 1,349 1,361 1,369 1,386 1,388 1,391 1,433 1,444 1,449 1,454 1,459 1,491 1,495 1,496 1,510 1,518 1,528 1,536 1,548 1,577 1,588 1,655 1,657 1,659 1,669 1,675 1,695 1,704 1,705 1,709 1,724 1,745 1,755 1,763 1,770 1,775 1,779 1,782 1,783 1,788 1,793 1,796 1,807 1,812 1,826 1,829 1,834 1,854 1,859 1,869 1,870 1,875 1,877 1,879 1,883 1,895 1,909 1,911 1}
{4 1,6 1,32 1,39 1,43 1,46 1,55 1,61 1,82 1,108 1,128 1,152 1,212 1,233 1,247 1,259 1,275 1,277 1,310 1,317 1,321 1,335 1,339 1,361 1,365 1,369 1,371 1,388 1,391 1,402 1,409 1,441 1,453 1,468 1,478 1,491 1,494 1,496 1,497 1,509 1,515 1,518 1,521 1,523 1,528 1,537 1,538 1,541 1,603 1,659 1,687 1,698 1,709 1,714 1,758 1,782 1,783 1,784 1,791 1,792 1,793 1,796 1,807 1,834 1,873 1,883 1,909 1,913 1}
{4 1,6 1,39 1,42 1,82 1,85 1,115 1,123 1,223 1,321 1,322 1,328 1,332 1,369 1,411 1,470 1,481 1,495 1,528 1,587 1,616 1,652 1,659 1,715 1,783 1,794 1,807 1,854 1,863 1,867 1,875 1,890 1,895 1,913 1}
{6 1,14 1,24 1,37 1,39 1,46 1,55 1,56 1,61 1,62 1,67 1,70 1,83 1,87 1,94 1,109 1,114 1,127 1,148 1,152 1,177 1,195 1,196 1,204 1,207 1,210 1,243 1,286 1,307 1,308 1,329 1,332 1,344 1,345 1,347 1,357 1,361 1,369 1,388 1,409 1,417 1,464 1,495 1,507 1,512 1,515 1,521 1,528 1,529 1,536 1,538 1,541 1,552 1,559 1,588 1,623 1,647 1,657 1,667 1,709 1,714 1,740 1,763 1,775 1,779 1,782 1,783 1,786 1,793 1,807 1,849 1,854 1,863 1,870 1,879 1,883 1,898 1,900 1,903 1,909 1}
{4 1,14 1,24 1,32 1,39 1,41 1,43 1,46 1,55 1,56 1,61 1,71 1,82 1,85 1,86 1,114 1,122 1,123 1,144 1,152 1,168 1,170 1,196 1,210 1,212 1,224 1,233 1,247 1,271 1,275 1,277 1,305 1,310 1,313 1,315 1,321 1,326 1,329 1,330 1,335 1,339 1,353 1,358 1,361 1,369 1,386 1,388 1,391 1,409 1,441 1,450 1,453 1,458 1,468 1,470 1,497 1,508 1,513 1,515 1,518 1,528 1,536 1,537 1,538 1,539 1,545 1,587 1,604 1,626 1,638 1,643 1,667 1,682 1,698 1,701 1,709 1,714 1,750 1,760 1,763 1,764 1,782 1,783 1,790 1,791 1,800 1,802 1,804 1,807 1,819 1,821 1,824 1,832 1,834 1,835 1,846 1,852 1,853 1,854 1,856 1,858 1,859 1,863 1,864 1,869 1,883 1,885 1,895 1,913 1}
{4 1,14 1,19 1,47 1,54 1,56 1,220 1,228 1,229 1,280 1,321 1,329 1,335 1,361 1,369 1,376 1,386 1,420 1,440 1,491 1,510 1,515 1,528 1,538 1,551 1,600 1,632 1,640 1,659 1,697 1,701 1,714 1,720 1,725 1,782 1,783 1,790 1,807 1,813 1,854 1,913 1}
{4 1,14 1,37 1,56 1,61 1,82 1,95 1,115 1,120 1,261 1,321 1,338 1,345 1,426 1,515 1,528 1,536 1,552 1,569 1,580 1,635 1,657 1,688 1,693 1,703 1,724 1,764 1,769 1,771 1,782 1,783 1,796 1,804 1,807 1,869 1,872 1,879 1}
{4 1,14 1,39 1,45 1,46 1,55 1,61 1,82 1,123 1,152 1,204 1,210 1,233 1,253 1,271 1,277 1,300 1,321 1,328 1,331 1,342 1,361 1,365 1,369 1,388 1,389 1,391 1,453 1,470 1,518 1,583 1,660 1,681 1,705 1,709 1,763 1,782 1,783 1,788 1,796 1,799 1,804 1,807 1,834 1,846 1,867 1,885 1,888 1,913 1}
{4 1,6 1,11 1,24 1,39 1,55 1,82 1,114 1,152 1,168 1,228 1,277 1,325 1,337 1,369 1,388 1,427 1,460 1,488 1,528 1,538 1,559 1,596 1,657 1,659 1,712 1,732 1,753 1,782 1,783 1,788 1,807 1,815 1,825 1,854 1,865 1,867 1,890 1,912 1,913 1}
{4 1,32 1,34 1,43 1,76 1,82 1,93 1,117 1,181 1,210 1,223 1,228 1,265 1,294 1,329 1,361 1,388 1,391 1,404 1,428 1,437 1,482 1,491 1,495 1,497 1,509 1,518 1,528 1,573 1,585 1,587 1,592 1,600 1,630 1,657 1,661 1,667 1,709 1,763 1,770 1,782 1,783 1,823 1,842 1,895 1,907 1,909 1}
{4 1,39 1,41 1,51 1,55 1,56 1,66 1,82 1,93 1,114 1,128 1,165 1,171 1,190 1,198 1,207 1,228 1,239 1,250 1,313 1,332 1,361 1,364 1,369 1,385 1,388 1,391 1,415 1,429 1,510 1,518 1,528 1,536 1,538 1,539 1,573 1,592 1,601 1,693 1,755 1,782 1,783 1,784 1,788 1,790 1,796 1,800 1,807 1,854 1,866 1,867 1,869 1,875 1,895 1,898 1,911 1,913 1}
{4 1,24 1,29 1,39 1,42 1,56 1,70 1,82 1,92 1,117 1,123 1,168 1,176 1,177 1,207 1,210 1,222 1,245 1,246 1,270 1,329 1,336 1,357 1,361 1,369 1,379 1,385 1,391 1,402 1,418 1,437 1,455 1,463 1,518 1,528 1,536 1,541 1,552 1,561 1,591 1,592 1,616 1,627 1,657 1,671 1,704 1,709 1,763 1,765 1,782 1,783 1,785 1,786 1,788 1,793 1,796 1,807 1,859 1,867 1,875 1,879 1,890 1,893 1,895 1,909 1,913 1}
{4 1,6 1,32 1,37 1,39 1,45 1,46 1,67 1,73 1,85 1,114 1,123 1,204 1,222 1,239 1,245 1,277 1,294 1,303 1,308 1,322 1,329 1,330 1,361 1,365 1,369 1,391 1,409 1,453 1,455 1,470 1,489 1,497 1,509 1,536 1,541 1,552 1,580 1,587 1,635 1,657 1,679 1,709 1,724 1,746 1,763 1,764 1,775 1,780 1,782 1,783 1,788 1,801 1,804 1,807 1,854 1,859 1,867 1,869 1,879 1,888 1,895 1,909 1}
{4 1,6 1,16 1,19 1,24 1,37 1,39 1,43 1,46 1,51 1,55 1,56 1,61 1,77 1,82 1,84 1,85 1,86 1,88 1,92 1,93 1,103 1,114 1,115 1,123 1,129 1,152 1,160 1,168 1,169 1,171 1,178 1,182 1,189 1,204 1,210 1,211 1,228 1,242 1,243 1,248 1,250 1,251 1,254 1,256 1,260 1,277 1,278 1,286 1,296 1,300 1,307 1,321 1,326 1,328 1,329 1,332 1,346 1,352 1,361 1,368 1,369 1,388 1,391 1,402 1,411 1,416 1,432 1,433 1,441 1,457 1,464 1,487 1,493 1,495 1,497 1,515 1,518 1,523 1,528 1,536 1,541 1,548 1,552 1,559 1,567 1,588 1,590 1,603 1,618 1,623 1,644 1,645 1,647 1,651 1,655 1,657 1,662 1,672 1,673 1,695 1,714 1,720 1,737 1,752 1,761 1,763 1,777 1,779 1,782 1,783 1,784 1,785 1,787 1,788 1,790 1,793 1,796 1,807 1,821 1,823 1,831 1,832 1,834 1,838 1,841 1,849 1,854 1,858 1,863 1,865 1,867 1,868 1,869 1,870 1,872 1,876 1,883 1,885 1,892 1,895 1,896 1,902 1,909 1,913 1}
{4 1,35 1,39 1,51 1,55 1,56 1,60 1,61 1,112 1,115 1,117 1,123 1,149 1,150 1,171 1,178 1,180 1,183 1,222 1,225 1,228 1,245 1,251 1,271 1,277 1,286 1,288 1,308 1,312 1,361 1,369 1,385 1,386 1,388 1,391 1,427 1,437 1,441 1,480 1,501 1,509 1,527 1,528 1,549 1,552 1,620 1,638 1,657 1,660 1,663 1,672 1,677 1,709 1,722 1,746 1,748 1,782 1,783 1,788 1,789 1,804 1,807 1,837 1,849 1,854 1,865 1,875 1,885 1,913 1}
{4 1,6 1,11 1,24 1,39 1,56 1,61 1,82 1,95 1,114 1,123 1,126 1,168 1,196 1,246 1,260 1,277 1,301 1,307 1,326 1,328 1,332 1,344 1,345 1,361 1,365 1,369 1,388 1,391 1,425 1,427 1,438 1,453 1,459 1,468 1,470 1,477 1,478 1,481 1,488 1,491 1,495 1,497 1,504 1,518 1,521 1,528 1,532 1,536 1,541 1,558 1,568 1,580 1,583 1,615 1,630 1,657 1,667 1,677 1,709 1,716 1,717 1,733 1,745 1,763 1,782 1,783 1,790 1,796 1,807 1,812 1,833 1,834 1,852 1,854 1,859 1,860 1,863 1,867 1,868 1,869 1,870 1,883 1,896 1,903 1,904 1,909 1,911 1}
{4 1,8 1,13 1,31 1,32 1,39 1,43 1,45 1,55 1,56 1,65 1,82 1,91 1,136 1,174 1,177 1,181 1,201 1,204 1,210 1,211 1,300 1,307 1,308 1,315 1,321 1,328 1,329 1,361 1,365 1,369 1,377 1,382 1,386 1,388 1,404 1,409 1,449 1,453 1,470 1,473 1,505 1,509 1,518 1,523 1,528 1,536 1,547 1,627 1,642 1,657 1,701 1,709 1,714 1,751 1,753 1,763 1,780 1,782 1,783 1,790 1,807 1,827 1,846 1,895 1,908 1,909 1,913 1}
{45 1,164 1,207 1,277 1,357 1,369 1,409 1,781 1,807 1,913 1}
{4 1,55 1,152 1,177 1,181 1,195 1,277 1,318 1,328 1,361 1,369 1,577 1,769 1,783 1,790 1,793 1,796 1,883 1,895 1,907 1}
{4 1,55 1,56 1,74 1,171 1,201 1,204 1,228 1,243 1,277 1,284 1,298 1,309 1,365 1,369 1,439 1,441 1,457 1,528 1,538 1,578 1,695 1,755 1,790 1,796 1,842 1,859 1,913 1}
{4 1,29 1,52 1,61 1,115 1,116 1,277 1,369 1,388 1,391 1,497 1,518 1,521 1,525 1,657 1,711 1,725 1,762 1,783 1,788 1,790 1,807 1,883 1,909 1,913 1}
{4 1,6 1,22 1,24 1,27 1,33 1,37 1,39 1,43 1,44 1,51 1,53 1,56 1,61 1,62 1,70 1,71 1,73 1,75 1,76 1,82 1,91 1,92 1,93 1,94 1,101 1,103 1,105 1,114 1,115 1,122 1,123 1,138 1,162 1,168 1,171 1,196 1,203 1,204 1,207 1,210 1,213 1,222 1,226 1,228 1,229 1,232 1,233 1,240 1,241 1,260 1,262 1,277 1,284 1,286 1,291 1,300 1,301 1,302 1,307 1,308 1,310 1,326 1,328 1,329 1,331 1,332 1,345 1,348 1,349 1,361 1,365 1,369 1,377 1,388 1,391 1,392 1,393 1,404 1,405 1,412 1,417 1,422 1,423 1,433 1,435 1,439 1,441 1,442 1,448 1,453 1,456 1,457 1,458 1,461 1,468 1,476 1,478 1,491 1,492 1,493 1,497 1,508 1,509 1,515 1,518 1,528 1,536 1,538 1,548 1,552 1,553 1,558 1,576 1,577 1,583 1,584 1,591 1,592 1,597 1,630 1,635 1,643 1,655 1,657 1,679 1,695 1,709 1,714 1,716 1,724 1,735 1,738 1,739 1,746 1,763 1,769 1,770 1,773 1,779 1,782 1,783 1,793 1,795 1,796 1,804 1,807 1,814 1,815 1,826 1,846 1,849 1,854 1,863 1,865 1,869 1,875 1,877 1,879 1,880 1,881 1,882 1,883 1,885 1,887 1,895 1,898 1,901 1,903 1,904 1,906 1,908 1,909 1,910 1}
{4 1,6 1,10 1,37 1,39 1,43 1,45 1,47 1,51 1,54 1,56 1,61 1,82 1,92 1,93 1,114 1,122 1,123 1,148 1,153 1,168 1,170 1,204 1,245 1,250 1,269 1,273 1,277 1,292 1,296 1,313 1,315 1,321 1,329 1,332 1,344 1,345 1,357 1,361 1,362 1,364 1,366 1,369 1,379 1,383 1,385 1,388 1,391 1,439 1,482 1,496 1,497 1,508 1,509 1,516 1,518 1,528 1,532 1,535 1,536 1,538 1,539 1,540 1,541 1,549 1,552 1,560 1,580 1,603 1,604 1,605 1,611 1,618 1,656 1,657 1,666 1,672 1,711 1,716 1,720 1,729 1,750 1,752 1,762 1,763 1,766 1,772 1,773 1,782 1,783 1,785 1,788 1,789 1,790 1,794 1,796 1,799 1,807 1,834 1,854 1,856 1,867 1,869 1,873 1,877 1,883 1,903 1,906 1,913 1}
{4 1,41 1,45 1,82 1,94 1,164 1,207 1,271 1,273 1,277 1,357 1,369 1,386 1,388 1,409 1,457 1,468 1,495 1,505 1,528 1,552 1,599 1,603 1,725 1,786 1,807 1,831 1,847 1,863 1,872 1,890 1,891 1,909 1,913 1}
{4 1,6 1,37 1,39 1,51 1,61 1,68 1,76 1,82 1,110 1,123 1,162 1,171 1,172 1,177 1,223 1,228 1,241 1,262 1,300 1,308 1,321 1,343 1,361 1,365 1,368 1,369 1,377 1,388 1,391 1,393 1,402 1,429 1,433 1,442 1,469 1,491 1,510 1,518 1,521 1,528 1,531 1,535 1,538 1,541 1,567 1,616 1,695 1,714 1,715 1,769 1,775 1,779 1,782 1,783 1,790 1,793 1,798 1,807 1,823 1,826 1,846 1,854 1,869 1,872 1,873 1,877 1,883 1,895 1,903 1,909 1,910 1,911 1}
{4 1,5 1,6 1,24 1,26 1,29 1,30 1,37 1,39 1,43 1,46 1,51 1,55 1,56 1,58 1,82 1,83 1,88 1,93 1,94 1,114 1,115 1,123 1,125 1,128 1,134 1,135 1,136 1,168 1,174 1,186 1,192 1,195 1,207 1,210 1,211 1,228 1,243 1,244 1,247 1,254 1,260 1,271 1,277 1,278 1,286 1,289 1,300 1,303 1,321 1,329 1,332 1,358 1,361 1,364 1,365 1,368 1,369 1,379 1,386 1,388 1,391 1,411 1,415 1,419 1,425 1,427 1,431 1,433 1,454 1,457 1,463 1,491 1,493 1,495 1,497 1,515 1,518 1,520 1,523 1,528 1,529 1,536 1,538 1,539 1,541 1,549 1,588 1,591 1,592 1,601 1,615 1,616 1,617 1,630 1,645 1,657 1,671 1,672 1,673 1,674 1,680 1,684 1,700 1,709 1,714 1,720 1,729 1,730 1,748 1,754 1,763 1,765 1,779 1,782 1,783 1,784 1,785 1,786 1,788 1,789 1,790 1,791 1,793 1,796 1,798 1,802 1,807 1,809 1,812 1,816 1,823 1,836 1,837 1,840 1,841 1,852 1,854 1,858 1,859 1,867 1,870 1,872 1,875 1,879 1,883 1,893 1,895 1,898 1,904 1,913 1}
{4 1,29 1,37 1,39 1,43 1,51 1,70 1,114 1,115 1,123 1,154 1,159 1,177 1,204 1,234 1,243 1,258 1,273 1,286 1,307 1,361 1,369 1,370 1,371 1,389 1,391 1,402 1,409 1,430 1,433 1,439 1,449 1,453 1,483 1,497 1,500 1,515 1,518 1,521 1,528 1,538 1,541 1,565 1,567 1,603 1,628 1,630 1,638 1,652 1,653 1,659 1,672 1,714 1,716 1,763 1,782 1,783 1,789 1,790 1,793 1,796 1,802 1,807 1,834 1,840 1,854 1,865 1,869 1,879 1,909 1,913 1}
{4 1,39 1,56 1,61 1,82 1,92 1,109 1,173 1,240 1,243 1,262 1,264 1,308 1,329 1,332 1,343 1,357 1,361 1,369 1,388 1,391 1,409 1,417 1,422 1,495 1,506 1,518 1,574 1,655 1,657 1,676 1,694 1,709 1,746 1,763 1,779 1,783 1,793 1,796 1,807 1,814 1,859 1,873 1,879 1,887 1,903 1}
{4 1,6 1,14 1,24 1,39 1,45 1,46 1,51 1,55 1,56 1,61 1,82 1,85 1,87 1,93 1,114 1,123 1,152 1,168 1,182 1,196 1,198 1,204 1,208 1,210 1,220 1,222 1,233 1,245 1,249 1,253 1,260 1,269 1,271 1,281 1,284 1,293 1,300 1,310 1,321 1,328 1,329 1,333 1,336 1,339 1,342 1,354 1,355 1,361 1,365 1,369 1,388 1,389 1,391 1,402 1,409 1,419 1,433 1,441 1,453 1,457 1,469 1,470 1,483 1,491 1,495 1,496 1,497 1,513 1,518 1,528 1,537 1,538 1,539 1,541 1,545 1,548 1,552 1,553 1,557 1,567 1,568 1,583 1,586 1,592 1,623 1,657 1,660 1,680 1,701 1,703 1,705 1,709 1,721 1,739 1,740 1,763 1,779 1,782 1,783 1,785 1,786 1,788 1,793 1,796 1,799 1,801 1,804 1,807 1,813 1,821 1,834 1,841 1,846 1,849 1,854 1,856 1,857 1,867 1,869 1,875 1,883 1,888 1,904 1,913 1}
{4 1,24 1,37 1,39 1,56 1,63 1,65 1,71 1,114 1,123 1,130 1,153 1,168 1,172 1,177 1,182 1,185 1,196 1,210 1,213 1,228 1,239 1,260 1,267 1,277 1,311 1,337 1,361 1,365 1,369 1,386 1,388 1,391 1,409 1,433 1,441 1,458 1,501 1,512 1,528 1,536 1,544 1,548 1,552 1,599 1,607 1,657 1,672 1,697 1,699 1,714 1,716 1,725 1,732 1,761 1,762 1,763 1,782 1,783 1,788 1,791 1,802 1,807 1,815 1,821 1,826 1,835 1,858 1,859 1,864 1,870 1,872 1,883 1,895 1,906 1,909 1,912 1,913 1}
{4 1,35 1,39 1,71 1,76 1,88 1,109 1,114 1,115 1,122 1,152 1,162 1,171 1,181 1,193 1,220 1,228 1,241 1,286 1,308 1,361 1,369 1,377 1,388 1,389 1,391 1,393 1,399 1,442 1,464 1,553 1,572 1,654 1,660 1,745 1,763 1,783 1,793 1,804 1,807 1,811 1,826 1,854 1,869 1,883 1}
{1 1,4 1,55 1,129 1,215 1,228 1,230 1,260 1,299 1,369 1,388 1,391 1,474 1,518 1,528 1,539 1,783 1,831 1,913 1}
{4 1,6 1,18 1,39 1,43 1,45 1,55 1,123 1,183 1,196 1,207 1,267 1,303 1,321 1,328 1,357 1,361 1,369 1,376 1,395 1,433 1,454 1,457 1,491 1,528 1,536 1,541 1,657 1,694 1,714 1,715 1,720 1,763 1,783 1,796 1,807 1,840 1,849 1,854 1,867 1,894 1,913 1}
{4 1,13 1,24 1,39 1,42 1,49 1,51 1,70 1,73 1,85 1,88 1,91 1,115 1,116 1,173 1,203 1,214 1,225 1,244 1,264 1,277 1,286 1,328 1,329 1,333 1,345 1,361 1,369 1,385 1,386 1,388 1,409 1,453 1,460 1,497 1,518 1,528 1,539 1,561 1,603 1,630 1,634 1,635 1,686 1,710 1,745 1,770 1,782 1,783 1,784 1,796 1,802 1,807 1,855 1,858 1,877 1,893 1,909 1}
{1 1,4 1,24 1,28 1,30 1,39 1,51 1,55 1,56 1,82 1,123 1,153 1,199 1,228 1,277 1,299 1,332 1,333 1,361 1,365 1,369 1,439 1,468 1,474 1,491 1,497 1,498 1,518 1,528 1,529 1,657 1,679 1,779 1,781 1,783 1,788 1,814 1,819 1,821 1,823 1,831 1,834 1,883 1,911 1,913 1}
{4 1,21 1,24 1,29 1,30 1,39 1,43 1,53 1,55 1,56 1,58 1,80 1,82 1,112 1,114 1,123 1,126 1,152 1,177 1,204 1,209 1,228 1,241 1,258 1,273 1,286 1,321 1,326 1,328 1,337 1,342 1,361 1,365 1,369 1,388 1,389 1,391 1,402 1,430 1,433 1,449 1,453 1,456 1,460 1,487 1,491 1,505 1,518 1,521 1,528 1,529 1,538 1,541 1,565 1,567 1,597 1,617 1,632 1,653 1,657 1,658 1,659 1,679 1,705 1,714 1,716 1,720 1,729 1,732 1,747 1,763 1,782 1,783 1,789 1,790 1,796 1,802 1,807 1,815 1,825 1,834 1,836 1,840 1,865 1,867 1,883 1,890 1,909 1,912 1,913 1}
{4 1,13 1,24 1,39 1,42 1,49 1,51 1,61 1,73 1,83 1,85 1,94 1,114 1,115 1,116 1,120 1,168 1,170 1,196 1,203 1,204 1,210 1,211 1,214 1,225 1,232 1,244 1,277 1,286 1,305 1,321 1,328 1,332 1,333 1,339 1,344 1,345 1,361 1,365 1,369 1,385 1,386 1,388 1,409 1,416 1,427 1,428 1,434 1,453 1,460 1,469 1,479 1,493 1,495 1,497 1,505 1,518 1,525 1,528 1,536 1,539 1,561 1,603 1,627 1,630 1,635 1,657 1,686 1,691 1,709 1,710 1,716 1,745 1,746 1,763 1,782 1,783 1,784 1,791 1,796 1,802 1,804 1,805 1,807 1,812 1,854 1,855 1,877 1,883 1,893 1,909 1,910 1}
{4 1,18 1,24 1,29 1,37 1,39 1,41 1,43 1,45 1,53 1,56 1,61 1,75 1,82 1,85 1,114 1,164 1,168 1,193 1,205 1,222 1,231 1,277 1,279 1,285 1,286 1,316 1,324 1,328 1,331 1,332 1,345 1,354 1,361 1,365 1,369 1,382 1,388 1,389 1,391 1,426 1,433 1,439 1,441 1,455 1,456 1,470 1,483 1,489 1,495 1,497 1,509 1,516 1,518 1,521 1,528 1,535 1,536 1,538 1,541 1,557 1,559 1,561 1,590 1,592 1,600 1,604 1,618 1,644 1,657 1,691 1,740 1,754 1,763 1,766 1,781 1,782 1,783 1,796 1,801 1,807 1,812 1,823 1,863 1,875 1,879 1,883 1,895 1,903 1,904 1,907 1,909 1,913 1}
{4 1,14 1,39 1,47 1,51 1,54 1,56 1,61 1,71 1,115 1,152 1,204 1,220 1,228 1,229 1,280 1,300 1,321 1,329 1,335 1,361 1,363 1,369 1,386 1,391 1,420 1,433 1,440 1,442 1,462 1,478 1,510 1,528 1,529 1,536 1,538 1,551 1,615 1,632 1,640 1,657 1,659 1,697 1,701 1,714 1,715 1,720 1,725 1,782 1,783 1,784 1,786 1,790 1,807 1,813 1,854 1,870 1,877 1,913 1}
{4 1,32 1,39 1,49 1,51 1,63 1,70 1,76 1,83 1,86 1,92 1,114 1,135 1,169 1,170 1,182 1,204 1,206 1,224 1,261 1,262 1,270 1,271 1,277 1,294 1,310 1,319 1,321 1,328 1,329 1,354 1,357 1,361 1,368 1,369 1,383 1,388 1,391 1,433 1,439 1,442 1,449 1,468 1,493 1,497 1,521 1,528 1,539 1,548 1,552 1,572 1,630 1,667 1,677 1,714 1,733 1,746 1,753 1,770 1,782 1,783 1,789 1,790 1,792 1,793 1,800 1,807 1,823 1,834 1,854 1,858 1,859 1,865 1,879 1,883 1}
{39 1,55 1,130 1,157 1,162 1,181 1,228 1,230 1,277 1,327 1,369 1,388 1,391 1,493 1,516 1,528 1,536 1,550 1,703 1,783 1,823 1,841 1,910 1,913 1}
{4 1,6 1,24 1,29 1,37 1,39 1,42 1,51 1,55 1,56 1,70 1,104 1,111 1,114 1,115 1,117 1,121 1,123 1,168 1,174 1,177 1,183 1,213 1,225 1,246 1,270 1,277 1,286 1,292 1,305 1,307 1,328 1,329 1,336 1,339 1,357 1,361 1,369 1,385 1,388 1,391 1,396 1,402 1,404 1,416 1,433 1,444 1,463 1,464 1,467 1,482 1,487 1,497 1,528 1,536 1,538 1,541 1,546 1,552 1,561 1,567 1,592 1,597 1,616 1,620 1,627 1,663 1,664 1,671 1,686 1,725 1,782 1,783 1,785 1,786 1,788 1,789 1,793 1,796 1,807 1,824 1,834 1,858 1,859 1,867 1,875 1,879 1,883 1,895 1,913 1}
{4 1,16 1,29 1,41 1,67 1,76 1,105 1,117 1,127 1,148 1,210 1,211 1,226 1,244 1,277 1,321 1,329 1,345 1,347 1,353 1,357 1,361 1,369 1,389 1,391 1,419 1,476 1,479 1,493 1,496 1,508 1,514 1,528 1,539 1,572 1,574 1,635 1,655 1,657 1,682 1,724 1,763 1,782 1,783 1,785 1,791 1,800 1,807 1,813 1,823 1,833 1,854 1,879 1,883 1,903 1}
{4 1,6 1,32 1,39 1,43 1,46 1,51 1,55 1,61 1,71 1,82 1,83 1,108 1,114 1,115 1,123 1,128 1,131 1,152 1,153 1,168 1,199 1,212 1,229 1,233 1,243 1,247 1,259 1,270 1,275 1,277 1,310 1,317 1,321 1,329 1,332 1,335 1,339 1,345 1,358 1,361 1,365 1,369 1,371 1,372 1,388 1,391 1,402 1,409 1,425 1,437 1,441 1,453 1,468 1,478 1,491 1,494 1,496 1,497 1,505 1,509 1,515 1,518 1,521 1,523 1,528 1,529 1,536 1,537 1,538 1,541 1,552 1,567 1,588 1,603 1,626 1,657 1,659 1,679 1,687 1,698 1,709 1,714 1,750 1,751 1,758 1,782 1,783 1,784 1,785 1,790 1,791 1,792 1,793 1,796 1,807 1,834 1,873 1,875 1,883 1,895 1,909 1,913 1}
{4 1,39 1,51 1,55 1,65 1,114 1,123 1,130 1,172 1,177 1,185 1,210 1,228 1,237 1,238 1,311 1,329 1,361 1,369 1,389 1,391 1,409 1,433 1,480 1,501 1,512 1,521 1,551 1,599 1,657 1,697 1,711 1,763 1,782 1,783 1,807 1,821 1,826 1,835 1,879 1,883 1,895 1,909 1,913 1}
{4 1,6 1,56 1,80 1,114 1,170 1,195 1,210 1,226 1,261 1,271 1,300 1,329 1,369 1,378 1,388 1,418 1,443 1,470 1,514 1,528 1,541 1,572 1,677 1,733 1,763 1,767 1,782 1,783 1,790 1,791 1,796 1,817 1,854 1,881 1,898 1,903 1}
{4 1,12 1,18 1,37 1,39 1,55 1,59 1,61 1,68 1,82 1,105 1,108 1,114 1,115 1,120 1,144 1,152 1,177 1,204 1,207 1,218 1,235 1,275 1,277 1,305 1,308 1,327 1,331 1,333 1,361 1,369 1,388 1,391 1,411 1,440 1,441 1,453 1,470 1,473 1,478 1,494 1,497 1,515 1,518 1,520 1,528 1,538 1,545 1,552 1,555 1,657 1,659 1,688 1,714 1,722 1,752 1,760 1,763 1,764 1,782 1,783 1,796 1,807 1,837 1,851 1,854 1,867 1,869 1,872 1,878 1,879 1,883 1,885 1,895 1,896 1,909 1,913 1}
{4 1,13 1,24 1,37 1,39 1,43 1,45 1,56 1,82 1,95 1,107 1,114 1,115 1,177 1,196 1,208 1,233 1,277 1,284 1,286 1,300 1,305 1,328 1,329 1,341 1,361 1,365 1,383 1,385 1,388 1,391 1,433 1,435 1,453 1,455 1,464 1,478 1,497 1,515 1,518 1,528 1,536 1,541 1,548 1,560 1,607 1,611 1,612 1,616 1,630 1,655 1,656 1,657 1,671 1,689 1,690 1,695 1,711 1,725 1,761 1,763 1,783 1,785 1,796 1,799 1,805 1,807 1,828 1,834 1,837 1,846 1,855 1,858 1,872 1,875 1,879 1,883 1,895 1,904 1,909 1,913 1}
{4 1,6 1,14 1,32 1,39 1,56 1,61 1,114 1,115 1,195 1,203 1,280 1,286 1,295 1,335 1,354 1,361 1,388 1,391 1,397 1,440 1,448 1,463 1,495 1,497 1,518 1,528 1,535 1,536 1,552 1,558 1,572 1,628 1,676 1,687 1,740 1,767 1,782 1,783 1,786 1,790 1,796 1,807 1,809 1,813 1,865 1}
{4 1,6 1,37 1,39 1,51 1,55 1,56 1,97 1,135 1,228 1,239 1,250 1,286 1,361 1,363 1,365 1,369 1,370 1,388 1,391 1,402 1,412 1,424 1,428 1,483 1,497 1,518 1,528 1,540 1,657 1,671 1,717 1,730 1,763 1,783 1,784 1,786 1,807 1,834 1,835 1,856 1,859 1,867 1,913 1}
{4 1,6 1,18 1,24 1,39 1,45 1,55 1,56 1,88 1,152 1,183 1,209 1,225 1,228 1,238 1,264 1,267 1,321 1,337 1,357 1,361 1,369 1,386 1,388 1,391 1,395 1,433 1,452 1,454 1,460 1,485 1,490 1,515 1,528 1,536 1,538 1,541 1,542 1,633 1,657 1,694 1,703 1,714 1,720 1,732 1,752 1,777 1,782 1,783 1,784 1,786 1,788 1,791 1,796 1,807 1,815 1,825 1,840 1,849 1,854 1,867 1,873 1,890 1,895 1,912 1,913 1}
{4 1,27 1,37 1,39 1,51 1,55 1,56 1,83 1,91 1,92 1,114 1,116 1,117 1,135 1,152 1,171 1,196 1,204 1,208 1,228 1,243 1,277 1,293 1,308 1,320 1,321 1,328 1,329 1,332 1,346 1,349 1,359 1,361 1,369 1,388 1,417 1,433 1,449 1,507 1,524 1,528 1,539 1,601 1,619 1,624 1,667 1,676 1,677 1,679 1,709 1,714 1,763 1,773 1,782 1,783 1,796 1,807 1,815 1,834 1,854 1,867 1,872 1,883 1,903 1,906 1,909 1}
{4 1,14 1,24 1,32 1,39 1,51 1,61 1,70 1,82 1,103 1,114 1,123 1,132 1,271 1,277 1,280 1,286 1,321 1,328 1,329 1,361 1,369 1,388 1,391 1,427 1,433 1,453 1,470 1,497 1,518 1,528 1,538 1,541 1,548 1,557 1,623 1,659 1,667 1,703 1,709 1,763 1,766 1,779 1,783 1,784 1,790 1,793 1,807 1,831 1,836 1,849 1,854 1,857 1,869 1,873 1,883 1,909 1,913 1}
{4 1,24 1,29 1,37 1,39 1,43 1,51 1,55 1,56 1,61 1,68 1,70 1,82 1,85 1,114 1,115 1,123 1,152 1,154 1,159 1,161 1,168 1,177 1,204 1,224 1,232 1,242 1,243 1,258 1,268 1,273 1,277 1,286 1,293 1,300 1,307 1,315 1,328 1,339 1,342 1,361 1,369 1,370 1,377 1,385 1,388 1,389 1,391 1,409 1,420 1,430 1,433 1,439 1,449 1,453 1,477 1,483 1,487 1,491 1,497 1,500 1,502 1,505 1,515 1,516 1,518 1,521 1,528 1,538 1,541 1,545 1,555 1,565 1,567 1,597 1,603 1,612 1,619 1,625 1,628 1,630 1,652 1,653 1,658 1,659 1,672 1,714 1,716 1,721 1,730 1,752 1,763 1,768 1,779 1,782 1,783 1,786 1,788 1,789 1,790 1,793 1,796 1,802 1,804 1,807 1,816 1,828 1,834 1,840 1,842 1,854 1,860 1,862 1,865 1,869 1,872 1,883 1,909 1,913 1}
{4 1,44 1,49 1,58 1,72 1,85 1,89 1,110 1,141 1,178 1,196 1,207 1,220 1,329 1,361 1,497 1,528 1,536 1,586 1,695 1,724 1,763 1,783 1,793 1,807 1,846 1,854 1,869 1,874 1}
{4 1,9 1,24 1,39 1,54 1,87 1,97 1,101 1,102 1,114 1,123 1,152 1,166 1,168 1,200 1,204 1,277 1,300 1,329 1,361 1,369 1,388 1,391 1,402 1,424 1,439 1,470 1,491 1,497 1,539 1,540 1,630 1,638 1,657 1,716 1,775 1,777 1,779 1,782 1,783 1,789 1,790 1,807 1,837 1,852 1,865 1,867 1,869 1,877 1,895 1,909 1,913 1}
{4 1,7 1,24 1,37 1,39 1,51 1,53 1,56 1,61 1,65 1,68 1,88 1,89 1,114 1,115 1,116 1,121 1,123 1,126 1,158 1,223 1,250 1,258 1,264 1,277 1,286 1,293 1,305 1,320 1,329 1,342 1,361 1,369 1,388 1,391 1,428 1,435 1,487 1,491 1,495 1,502 1,515 1,518 1,525 1,528 1,529 1,541 1,552 1,597 1,600 1,652 1,653 1,657 1,679 1,683 1,684 1,709 1,710 1,752 1,763 1,765 1,779 1,782 1,783 1,785 1,788 1,789 1,790 1,799 1,807 1,834 1,836 1,839 1,845 1,863 1,872 1,879 1,883 1,903 1,909 1,913 1}
{4 1,6 1,14 1,32 1,39 1,55 1,56 1,61 1,114 1,115 1,195 1,203 1,210 1,228 1,261 1,280 1,286 1,295 1,335 1,354 1,361 1,369 1,388 1,391 1,397 1,440 1,448 1,453 1,463 1,495 1,497 1,518 1,528 1,535 1,536 1,552 1,558 1,572 1,628 1,676 1,687 1,740 1,767 1,782 1,783 1,786 1,790 1,796 1,807 1,809 1,813 1,865 1}
{4 1,5 1,31 1,39 1,51 1,55 1,56 1,59 1,61 1,70 1,82 1,85 1,93 1,114 1,123 1,135 1,197 1,208 1,210 1,227 1,228 1,253 1,256 1,260 1,277 1,286 1,300 1,307 1,309 1,326 1,329 1,342 1,352 1,357 1,361 1,369 1,370 1,388 1,391 1,402 1,404 1,416 1,425 1,441 1,449 1,453 1,470 1,475 1,491 1,495 1,497 1,518 1,528 1,529 1,536 1,538 1,539 1,541 1,567 1,615 1,621 1,631 1,645 1,657 1,680 1,705 1,714 1,752 1,763 1,764 1,772 1,776 1,782 1,783 1,788 1,793 1,796 1,804 1,807 1,812 1,835 1,841 1,843 1,862 1,863 1,869 1,872 1,879 1,883 1,884 1,885 1,891 1,904 1,909 1,913 1}
{4 1,6 1,14 1,37 1,39 1,49 1,56 1,61 1,77 1,79 1,82 1,114 1,115 1,119 1,132 1,156 1,163 1,175 1,194 1,203 1,210 1,214 1,225 1,236 1,271 1,277 1,284 1,286 1,301 1,328 1,329 1,332 1,361 1,365 1,369 1,384 1,386 1,388 1,391 1,412 1,426 1,440 1,452 1,453 1,454 1,457 1,491 1,502 1,516 1,528 1,536 1,541 1,547 1,555 1,561 1,593 1,596 1,597 1,641 1,647 1,649 1,650 1,657 1,672 1,674 1,710 1,712 1,722 1,725 1,756 1,761 1,762 1,763 1,767 1,771 1,779 1,782 1,783 1,793 1,796 1,801 1,802 1,807 1,814 1,825 1,840 1,870 1,872 1,879 1,883 1,904 1,913 1}
{4 1,5 1,24 1,37 1,39 1,43 1,51 1,55 1,56 1,61 1,66 1,82 1,83 1,87 1,89 1,92 1,94 1,109 1,114 1,115 1,123 1,135 1,152 1,157 1,168 1,170 1,177 1,178 1,180 1,187 1,204 1,208 1,218 1,239 1,243 1,245 1,248 1,270 1,277 1,286 1,294 1,295 1,313 1,321 1,329 1,361 1,365 1,368 1,369 1,388 1,391 1,402 1,409 1,423 1,427 1,433 1,438 1,451 1,453 1,456 1,470 1,491 1,493 1,495 1,497 1,500 1,505 1,515 1,518 1,528 1,530 1,536 1,541 1,548 1,576 1,577 1,588 1,596 1,630 1,655 1,656 1,667 1,675 1,677 1,681 1,684 1,695 1,699 1,702 1,704 1,735 1,763 1,764 1,769 1,770 1,777 1,781 1,782 1,783 1,784 1,788 1,790 1,796 1,801 1,807 1,822 1,823 1,834 1,859 1,867 1,869 1,880 1,882 1,883 1,887 1,895 1,909 1,910 1}
{4 1,39 1,42 1,52 1,55 1,56 1,75 1,91 1,114 1,123 1,152 1,164 1,170 1,182 1,204 1,207 1,213 1,228 1,243 1,253 1,277 1,286 1,300 1,308 1,315 1,329 1,332 1,339 1,345 1,361 1,369 1,388 1,391 1,404 1,407 1,409 1,433 1,448 1,453 1,463 1,470 1,497 1,503 1,504 1,507 1,510 1,515 1,518 1,528 1,536 1,549 1,616 1,623 1,625 1,630 1,657 1,671 1,701 1,714 1,755 1,759 1,782 1,783 1,785 1,788 1,790 1,791 1,804 1,807 1,828 1,862 1,867 1,869 1,875 1,886 1,895 1,898 1,905 1,906 1,913 1}
{4 1,11 1,24 1,37 1,39 1,41 1,43 1,51 1,52 1,54 1,61 1,65 1,82 1,85 1,99 1,114 1,123 1,157 1,159 1,170 1,177 1,209 1,210 1,218 1,222 1,235 1,243 1,267 1,277 1,279 1,286 1,288 1,293 1,328 1,329 1,335 1,342 1,358 1,361 1,365 1,369 1,370 1,380 1,382 1,387 1,388 1,391 1,403 1,407 1,409 1,416 1,433 1,453 1,463 1,468 1,487 1,491 1,498 1,508 1,517 1,518 1,521 1,525 1,528 1,536 1,541 1,548 1,559 1,597 1,601 1,612 1,617 1,630 1,652 1,653 1,672 1,679 1,701 1,729 1,755 1,763 1,779 1,782 1,783 1,788 1,789 1,790 1,805 1,807 1,837 1,840 1,846 1,849 1,858 1,867 1,870 1,872 1,883 1,909 1,913 1}
{4 1,24 1,70 1,82 1,114 1,120 1,123 1,181 1,228 1,321 1,361 1,388 1,391 1,469 1,497 1,512 1,529 1,536 1,567 1,783 1,879 1}
{4 1,39 1,43 1,56 1,83 1,85 1,87 1,94 1,99 1,124 1,157 1,168 1,177 1,201 1,205 1,241 1,277 1,305 1,328 1,329 1,334 1,335 1,338 1,361 1,365 1,388 1,391 1,402 1,426 1,457 1,489 1,497 1,518 1,519 1,521 1,528 1,529 1,630 1,637 1,657 1,693 1,695 1,709 1,716 1,718 1,751 1,763 1,766 1,781 1,782 1,783 1,793 1,796 1,807 1,810 1,834 1,854 1,863 1,865 1,877 1,883 1,887 1,913 1}
{4 1,6 1,24 1,25 1,29 1,37 1,39 1,41 1,42 1,51 1,56 1,61 1,82 1,85 1,91 1,92 1,114 1,120 1,123 1,128 1,154 1,168 1,184 1,204 1,239 1,267 1,273 1,277 1,286 1,292 1,300 1,305 1,307 1,308 1,321 1,322 1,329 1,336 1,338 1,345 1,354 1,358 1,361 1,369 1,388 1,391 1,402 1,404 1,425 1,440 1,444 1,456 1,457 1,478 1,488 1,491 1,509 1,510 1,512 1,518 1,521 1,528 1,536 1,541 1,542 1,543 1,546 1,607 1,612 1,680 1,690 1,714 1,746 1,748 1,754 1,780 1,782 1,783 1,785 1,788 1,790 1,796 1,800 1,807 1,847 1,849 1,851 1,859 1,872 1,879 1,883 1,895 1,903 1,904 1,909 1,911 1,913 1}
{4 1,365 1,369 1,382 1,428 1,436 1,470 1,538 1,541 1,587 1,657 1}
{4 1,35 1,39 1,45 1,52 1,123 1,132 1,157 1,201 1,277 1,303 1,361 1,365 1,369 1,377 1,388 1,391 1,412 1,470 1,491 1,528 1,611 1,630 1,642 1,657 1,689 1,763 1,783 1,849 1,875 1,883 1,886 1,895 1,913 1}
{4 1,37 1,39 1,41 1,49 1,56 1,61 1,70 1,75 1,82 1,85 1,86 1,114 1,132 1,159 1,190 1,195 1,213 1,256 1,270 1,277 1,280 1,284 1,286 1,324 1,325 1,328 1,345 1,361 1,362 1,369 1,385 1,386 1,388 1,391 1,392 1,402 1,420 1,421 1,433 1,441 1,448 1,461 1,501 1,508 1,518 1,519 1,521 1,528 1,536 1,559 1,639 1,640 1,647 1,651 1,652 1,654 1,657 1,659 1,678 1,697 1,703 1,713 1,716 1,725 1,746 1,764 1,782 1,783 1,786 1,790 1,796 1,798 1,804 1,807 1,810 1,812 1,834 1,854 1,859 1,865 1,869 1,870 1,872 1,879 1,883 1,890 1,913 1}
{29 1,45 1,51 1,55 1,123 1,173 1,195 1,228 1,230 1,277 1,286 1,303 1,369 1,388 1,399 1,433 1,470 1,479 1,491 1,528 1,536 1,541 1,555 1,716 1,781 1,783 1,790 1,807 1,809 1,875 1}
{4 1,31 1,37 1,39 1,51 1,67 1,70 1,82 1,84 1,114 1,115 1,123 1,135 1,171 1,177 1,181 1,210 1,228 1,244 1,277 1,298 1,300 1,309 1,361 1,365 1,386 1,388 1,391 1,424 1,433 1,454 1,488 1,496 1,497 1,518 1,528 1,541 1,563 1,578 1,677 1,748 1,749 1,760 1,763 1,782 1,783 1,790 1,793 1,796 1,804 1,807 1,832 1,852 1,867 1,869 1,873 1,877 1,879 1,885 1,887 1,895 1,909 1,911 1,913 1}
{4 1,14 1,39 1,47 1,51 1,54 1,55 1,56 1,61 1,71 1,82 1,92 1,115 1,123 1,152 1,204 1,216 1,220 1,228 1,229 1,258 1,270 1,271 1,280 1,300 1,321 1,329 1,335 1,353 1,361 1,363 1,369 1,386 1,391 1,399 1,420 1,433 1,440 1,442 1,453 1,462 1,478 1,510 1,515 1,518 1,528 1,529 1,536 1,538 1,540 1,541 1,550 1,551 1,615 1,632 1,640 1,657 1,659 1,697 1,701 1,709 1,714 1,715 1,720 1,725 1,754 1,777 1,782 1,783 1,784 1,785 1,786 1,790 1,798 1,803 1,807 1,813 1,832 1,854 1,859 1,869 1,870 1,877 1,879 1,913 1}
{39 1,55 1,61 1,65 1,83 1,86 1,106 1,171 1,182 1,183 1,207 1,228 1,300 1,307 1,321 1,329 1,332 1,345 1,361 1,369 1,386 1,402 1,425 1,477 1,528 1,529 1,714 1,782 1,783 1,785 1,791 1,793 1,807 1,814 1,837 1,853 1,865 1,890 1}
{4 1,6 1,29 1,39 1,43 1,51 1,88 1,114 1,128 1,129 1,130 1,152 1,182 1,215 1,222 1,229 1,231 1,266 1,271 1,286 1,300 1,322 1,328 1,338 1,357 1,361 1,369 1,377 1,388 1,391 1,396 1,409 1,411 1,455 1,497 1,517 1,518 1,521 1,528 1,529 1,538 1,541 1,616 1,641 1,647 1,648 1,657 1,693 1,701 1,720 1,764 1,766 1,782 1,783 1,788 1,807 1,813 1,849 1,867 1,870 1,873 1,886 1,913 1}
{0 1,1 1,2 1,3 1,4 1,6 1,18 1,39 1,54 1,55 1,63 1,69 1,117 1,152 1,183 1,195 1,225 1,243 1,267 1,277 1,286 1,288 1,317 1,321 1,328 1,357 1,361 1,369 1,388 1,391 1,392 1,395 1,400 1,417 1,433 1,452 1,453 1,454 1,490 1,501 1,509 1,528 1,536 1,541 1,542 1,552 1,559 1,561 1,610 1,654 1,657 1,691 1,694 1,714 1,720 1,726 1,783 1,801 1,807 1,840 1,854 1,867 1,883 1,904 1,913 1}
{4 1,6 1,29 1,32 1,56 1,61 1,62 1,72 1,82 1,114 1,115 1,146 1,195 1,196 1,207 1,210 1,243 1,261 1,277 1,310 1,329 1,332 1,344 1,345 1,361 1,365 1,369 1,382 1,391 1,409 1,471 1,495 1,496 1,512 1,518 1,533 1,534 1,541 1,548 1,574 1,661 1,667 1,709 1,744 1,763 1,782 1,783 1,785 1,786 1,790 1,793 1,796 1,801 1,807 1,812 1,849 1,854 1,863 1,864 1,865 1,867 1,869 1,873 1,877 1,879 1,883 1,887 1,903 1,910 1}
{4 1,36 1,37 1,43 1,51 1,56 1,207 1,224 1,260 1,271 1,277 1,329 1,355 1,360 1,361 1,369 1,409 1,427 1,497 1,523 1,528 1,616 1,672 1,703 1,761 1,781 1,782 1,783 1,796 1,802 1,804 1,807 1,884 1,910 1,911 1,913 1}
{4 1,24 1,39 1,51 1,55 1,213 1,277 1,328 1,329 1,369 1,388 1,444 1,459 1,501 1,518 1,552 1,592 1,640 1,641 1,657 1,672 1,685 1,695 1,709 1,714 1,725 1,742 1,743 1,782 1,783 1,786 1,793 1,798 1,807 1,812 1,835 1,840 1,855 1,872 1,874 1,877 1,879 1,883 1,913 1}
{4 1,6 1,55 1,56 1,61 1,80 1,114 1,170 1,195 1,210 1,226 1,228 1,261 1,271 1,294 1,300 1,329 1,369 1,378 1,388 1,418 1,443 1,453 1,470 1,514 1,528 1,541 1,572 1,677 1,733 1,763 1,767 1,782 1,783 1,790 1,791 1,796 1,817 1,854 1,881 1,898 1,903 1}
{4 1,39 1,43 1,51 1,55 1,60 1,61 1,82 1,83 1,89 1,114 1,115 1,123 1,128 1,131 1,144 1,168 1,170 1,177 1,199 1,204 1,210 1,218 1,228 1,243 1,270 1,275 1,277 1,300 1,310 1,321 1,329 1,332 1,345 1,352 1,358 1,361 1,365 1,369 1,372 1,385 1,388 1,389 1,391 1,393 1,402 1,425 1,429 1,437 1,449 1,450 1,453 1,470 1,494 1,497 1,518 1,520 1,528 1,529 1,538 1,541 1,547 1,548 1,552 1,567 1,588 1,626 1,637 1,657 1,668 1,704 1,714 1,715 1,716 1,751 1,763 1,779 1,782 1,783 1,784 1,788 1,789 1,790 1,792 1,807 1,821 1,829 1,832 1,867 1,869 1,872 1,877 1,883 1,895 1,909 1,911 1,913 1}
{4 1,6 1,18 1,37 1,39 1,45 1,51 1,55 1,56 1,83 1,88 1,103 1,114 1,115 1,152 1,168 1,183 1,209 1,213 1,225 1,228 1,238 1,264 1,267 1,270 1,272 1,277 1,286 1,288 1,300 1,305 1,321 1,337 1,352 1,355 1,357 1,361 1,363 1,369 1,382 1,386 1,388 1,390 1,391 1,395 1,402 1,412 1,416 1,421 1,433 1,439 1,449 1,452 1,454 1,458 1,485 1,489 1,490 1,501 1,503 1,510 1,515 1,528 1,536 1,541 1,542 1,545 1,567 1,582 1,591 1,602 1,627 1,633 1,639 1,659 1,672 1,677 1,694 1,703 1,707 1,709 1,714 1,717 1,720 1,732 1,752 1,753 1,761 1,763 1,777 1,782 1,783 1,784 1,786 1,788 1,791 1,796 1,801 1,807 1,809 1,815 1,826 1,837 1,840 1,849 1,854 1,856 1,858 1,859 1,867 1,870 1,873 1,885 1,895 1,912 1,913 1}
{4 1,39 1,55 1,62 1,87 1,102 1,109 1,114 1,127 1,135 1,152 1,195 1,196 1,218 1,252 1,277 1,286 1,305 1,321 1,329 1,331 1,332 1,350 1,361 1,369 1,378 1,512 1,515 1,538 1,638 1,694 1,711 1,741 1,752 1,763 1,783 1,786 1,807 1,842 1,854 1,863 1,867 1,890 1}
{4 1,37 1,39 1,42 1,55 1,56 1,123 1,152 1,182 1,222 1,228 1,300 1,308 1,315 1,329 1,332 1,339 1,345 1,361 1,369 1,379 1,388 1,391 1,407 1,433 1,453 1,470 1,497 1,503 1,507 1,510 1,515 1,518 1,528 1,536 1,549 1,593 1,616 1,633 1,657 1,671 1,673 1,701 1,709 1,715 1,755 1,759 1,783 1,785 1,807 1,854 1,865 1,867 1,875 1,886 1,895 1,898 1,905 1,906 1,913 1}
{4 1,37 1,39 1,63 1,70 1,82 1,114 1,123 1,177 1,236 1,241 1,286 1,300 1,304 1,307 1,347 1,361 1,363 1,369 1,386 1,391 1,396 1,432 1,466 1,470 1,491 1,496 1,521 1,528 1,538 1,539 1,552 1,606 1,625 1,679 1,714 1,715 1,716 1,726 1,763 1,779 1,782 1,783 1,785 1,790 1,792 1,796 1,807 1,823 1,840 1,849 1,854 1,872 1,883 1,890 1,895 1,909 1,913 1}
{4 1,21 1,24 1,43 1,45 1,51 1,56 1,151 1,207 1,277 1,294 1,311 1,329 1,345 1,361 1,365 1,369 1,377 1,378 1,388 1,391 1,400 1,402 1,417 1,426 1,437 1,497 1,501 1,528 1,536 1,537 1,538 1,540 1,541 1,571 1,627 1,781 1,782 1,783 1,788 1,793 1,796 1,807 1,854 1,883 1,903 1}
{4 1,6 1,11 1,39 1,82 1,114 1,123 1,197 1,212 1,228 1,245 1,281 1,284 1,286 1,328 1,329 1,342 1,357 1,361 1,369 1,382 1,391 1,451 1,453 1,471 1,475 1,483 1,489 1,491 1,493 1,508 1,513 1,515 1,520 1,528 1,536 1,604 1,642 1,661 1,680 1,703 1,763 1,768 1,779 1,782 1,783 1,801 1,804 1,807 1,818 1,825 1,835 1,846 1,855 1,875 1,883 1,890 1,895 1,909 1,913 1}
{4 1,13 1,24 1,28 1,37 1,39 1,45 1,55 1,77 1,82 1,103 1,114 1,123 1,131 1,149 1,160 1,182 1,208 1,233 1,234 1,249 1,274 1,277 1,279 1,300 1,328 1,329 1,345 1,361 1,365 1,369 1,385 1,388 1,391 1,399 1,416 1,433 1,435 1,439 1,464 1,518 1,528 1,537 1,538 1,541 1,546 1,573 1,592 1,595 1,617 1,671 1,672 1,683 1,725 1,751 1,761 1,763 1,783 1,788 1,789 1,807 1,823 1,836 1,858 1,875 1,883 1,895 1,909 1,911 1,913 1}
{4 1,14 1,24 1,37 1,39 1,41 1,43 1,48 1,51 1,55 1,76 1,86 1,115 1,116 1,117 1,140 1,169 1,179 1,196 1,207 1,216 1,226 1,271 1,277 1,286 1,293 1,294 1,295 1,300 1,305 1,321 1,329 1,332 1,348 1,369 1,388 1,391 1,405 1,412 1,431 1,453 1,463 1,471 1,491 1,498 1,505 1,515 1,521 1,528 1,536 1,538 1,539 1,541 1,552 1,577 1,583 1,587 1,625 1,627 1,655 1,656 1,669 1,676 1,751 1,763 1,769 1,782 1,783 1,788 1,790 1,796 1,802 1,803 1,805 1,807 1,834 1,835 1,839 1,859 1,875 1,880 1,883 1,890 1,892 1,901 1,909 1,911 1}
{4 1,6 1,14 1,24 1,29 1,37 1,39 1,43 1,45 1,56 1,61 1,82 1,87 1,119 1,122 1,123 1,128 1,146 1,162 1,163 1,198 1,207 1,211 1,263 1,268 1,271 1,277 1,300 1,358 1,361 1,365 1,368 1,369 1,388 1,391 1,402 1,409 1,427 1,453 1,473 1,482 1,496 1,497 1,518 1,528 1,532 1,539 1,541 1,591 1,619 1,714 1,741 1,752 1,755 1,763 1,782 1,783 1,786 1,790 1,791 1,796 1,800 1,807 1,825 1,834 1,854 1,865 1,871 1,873 1,877 1,883 1,895 1,913 1}
{4 1,11 1,14 1,24 1,30 1,36 1,37 1,39 1,55 1,61 1,82 1,83 1,114 1,115 1,134 1,172 1,177 1,196 1,204 1,207 1,213 1,220 1,228 1,235 1,270 1,277 1,278 1,288 1,300 1,305 1,321 1,324 1,329 1,337 1,352 1,363 1,365 1,369 1,382 1,386 1,388 1,391 1,392 1,402 1,416 1,433 1,439 1,441 1,449 1,451 1,452 1,458 1,460 1,485 1,495 1,501 1,503 1,505 1,510 1,528 1,536 1,538 1,542 1,591 1,602 1,657 1,659 1,695 1,707 1,709 1,716 1,717 1,732 1,763 1,782 1,783 1,784 1,804 1,807 1,815 1,825 1,826 1,834 1,838 1,852 1,854 1,856 1,859 1,867 1,883 1,885 1,890 1,909 1,912 1,913 1}
{4 1,51 1,109 1,195 1,246 1,295 1,305 1,361 1,369 1,422 1,433 1,457 1,514 1,518 1,528 1,763 1,782 1,783 1,802 1,807 1,866 1,881 1,895 1}
{4 1,6 1,24 1,29 1,32 1,39 1,42 1,56 1,61 1,82 1,83 1,100 1,114 1,115 1,157 1,160 1,162 1,165 1,168 1,204 1,222 1,234 1,245 1,260 1,277 1,293 1,329 1,332 1,333 1,339 1,361 1,369 1,388 1,403 1,407 1,409 1,426 1,437 1,454 1,463 1,467 1,470 1,495 1,497 1,515 1,518 1,525 1,528 1,536 1,541 1,587 1,621 1,644 1,657 1,695 1,698 1,699 1,709 1,717 1,778 1,781 1,782 1,783 1,784 1,789 1,790 1,796 1,807 1,812 1,846 1,854 1,861 1,913 1}
{4 1,11 1,24 1,39 1,54 1,55 1,56 1,70 1,123 1,223 1,228 1,241 1,286 1,300 1,304 1,307 1,328 1,337 1,361 1,369 1,388 1,391 1,394 1,460 1,466 1,470 1,491 1,506 1,528 1,538 1,552 1,555 1,601 1,625 1,626 1,657 1,679 1,714 1,720 1,732 1,763 1,779 1,782 1,783 1,785 1,790 1,796 1,807 1,815 1,825 1,849 1,858 1,872 1,890 1,895 1,909 1,912 1,913 1}
{0 1,1 1,2 1,33 1,39 1,49 1,62 1,73 1,90 1,101 1,105 1,109 1,119 1,141 1,145 1,151 1,173 1,206 1,228 1,277 1,353 1,356 1,369 1,372 1,417 1,423 1,448 1,476 1,502 1,509 1,571 1,572 1,579 1,635 1,636 1,657 1,661 1,724 1,734 1,770 1,815 1,866 1,874 1,887 1,901 1,908 1}
{4 1,14 1,24 1,30 1,37 1,39 1,44 1,51 1,56 1,61 1,67 1,74 1,82 1,114 1,116 1,118 1,123 1,139 1,150 1,182 1,207 1,213 1,217 1,222 1,228 1,271 1,277 1,281 1,286 1,298 1,309 1,329 1,361 1,365 1,381 1,388 1,391 1,409 1,431 1,433 1,445 1,453 1,469 1,470 1,489 1,497 1,499 1,516 1,518 1,528 1,536 1,567 1,578 1,620 1,657 1,669 1,677 1,692 1,706 1,709 1,715 1,757 1,782 1,783 1,791 1,796 1,807 1,812 1,823 1,827 1,830 1,841 1,849 1,875 1,883 1,909 1,913 1}
{4 1,37 1,43 1,45 1,61 1,116 1,123 1,168 1,210 1,213 1,277 1,308 1,361 1,365 1,391 1,402 1,409 1,505 1,541 1,544 1,615 1,763 1,764 1,782 1,783 1,786 1,790 1,800 1,828 1,909 1,913 1}
{55 1,68 1,92 1,102 1,117 1,332 1,369 1,464 1,536 1,779 1,796 1,854 1}
{4 1,24 1,37 1,39 1,45 1,51 1,55 1,56 1,82 1,101 1,117 1,123 1,131 1,171 1,177 1,228 1,239 1,275 1,277 1,361 1,369 1,375 1,382 1,388 1,391 1,393 1,412 1,437 1,441 1,470 1,478 1,494 1,510 1,536 1,541 1,552 1,587 1,594 1,647 1,657 1,674 1,714 1,715 1,734 1,782 1,783 1,793 1,796 1,807 1,810 1,836 1,837 1,851 1,854 1,895 1,913 1}
{4 1,6 1,9 1,24 1,37 1,39 1,46 1,51 1,55 1,61 1,65 1,82 1,95 1,97 1,114 1,115 1,117 1,123 1,140 1,152 1,183 1,200 1,210 1,213 1,235 1,243 1,244 1,246 1,286 1,307 1,308 1,310 1,315 1,321 1,329 1,336 1,344 1,345 1,357 1,361 1,363 1,365 1,369 1,391 1,402 1,426 1,437 1,453 1,457 1,460 1,463 1,470 1,475 1,493 1,497 1,506 1,508 1,510 1,518 1,521 1,528 1,535 1,536 1,562 1,567 1,587 1,592 1,594 1,615 1,627 1,657 1,666 1,667 1,671 1,691 1,714 1,725 1,744 1,763 1,775 1,781 1,782 1,783 1,784 1,790 1,793 1,796 1,800 1,807 1,821 1,834 1,837 1,854 1,859 1,865 1,867 1,875 1,877 1,879 1,883 1,895 1,909 1,911 1,913 1}
{4 1,22 1,37 1,39 1,51 1,55 1,82 1,102 1,131 1,204 1,209 1,228 1,241 1,256 1,277 1,294 1,332 1,345 1,347 1,365 1,369 1,388 1,391 1,434 1,457 1,468 1,470 1,491 1,510 1,514 1,518 1,528 1,536 1,552 1,575 1,576 1,657 1,681 1,687 1,709 1,765 1,769 1,779 1,782 1,783 1,790 1,796 1,807 1,863 1,867 1,875 1,879 1,909 1}
{4 1,6 1,8 1,17 1,24 1,29 1,39 1,43 1,45 1,46 1,47 1,51 1,52 1,54 1,55 1,56 1,57 1,82 1,83 1,85 1,114 1,123 1,130 1,140 1,154 1,168 1,177 1,204 1,210 1,218 1,224 1,228 1,239 1,244 1,257 1,277 1,289 1,307 1,317 1,321 1,328 1,329 1,331 1,334 1,335 1,338 1,361 1,365 1,369 1,388 1,402 1,410 1,411 1,416 1,441 1,444 1,453 1,466 1,468 1,495 1,497 1,506 1,512 1,515 1,518 1,521 1,528 1,538 1,541 1,548 1,550 1,552 1,557 1,567 1,604 1,625 1,637 1,657 1,677 1,679 1,693 1,695 1,703 1,714 1,716 1,722 1,741 1,752 1,755 1,760 1,763 1,764 1,778 1,783 1,788 1,790 1,792 1,795 1,796 1,807 1,819 1,867 1,872 1,876 1,883 1,909 1,913 1}
{4 1,39 1,54 1,56 1,82 1,83 1,116 1,207 1,277 1,365 1,388 1,391 1,402 1,441 1,452 1,470 1,472 1,490 1,501 1,509 1,515 1,518 1,525 1,528 1,542 1,611 1,615 1,631 1,647 1,709 1,750 1,752 1,753 1,782 1,783 1,788 1,791 1,812 1,867 1,879 1,909 1,913 1}
{4 1,6 1,55 1,61 1,72 1,92 1,102 1,110 1,114 1,120 1,153 1,211 1,242 1,264 1,300 1,313 1,332 1,345 1,361 1,365 1,369 1,388 1,391 1,402 1,442 1,449 1,457 1,504 1,518 1,528 1,552 1,574 1,584 1,657 1,679 1,680 1,709 1,782 1,783 1,793 1,796 1,807 1,858 1,867 1,869 1,875 1,879 1,909 1,911 1}
{4 1,7 1,15 1,19 1,37 1,39 1,43 1,46 1,51 1,55 1,56 1,61 1,82 1,114 1,115 1,116 1,123 1,146 1,152 1,157 1,165 1,171 1,178 1,182 1,191 1,204 1,210 1,211 1,214 1,228 1,243 1,254 1,260 1,277 1,286 1,291 1,296 1,300 1,304 1,305 1,306 1,307 1,320 1,328 1,331 1,345 1,346 1,352 1,358 1,361 1,365 1,369 1,370 1,380 1,386 1,388 1,391 1,425 1,427 1,433 1,441 1,464 1,468 1,472 1,493 1,495 1,496 1,516 1,518 1,528 1,536 1,538 1,541 1,552 1,559 1,561 1,589 1,590 1,645 1,651 1,657 1,662 1,672 1,680 1,681 1,695 1,703 1,714 1,720 1,737 1,751 1,761 1,762 1,763 1,777 1,782 1,783 1,785 1,786 1,787 1,788 1,789 1,790 1,793 1,796 1,799 1,807 1,812 1,820 1,832 1,846 1,858 1,859 1,863 1,867 1,870 1,872 1,876 1,877 1,883 1,887 1,892 1,898 1,909 1,913 1}
{4 1,6 1,24 1,32 1,33 1,51 1,56 1,116 1,195 1,220 1,277 1,286 1,357 1,361 1,365 1,369 1,388 1,420 1,460 1,501 1,525 1,528 1,604 1,660 1,683 1,725 1,752 1,753 1,756 1,782 1,783 1,784 1,788 1,790 1,807 1,853 1,858 1,865 1,913 1}
{4 1,39 1,55 1,72 1,115 1,168 1,177 1,210 1,228 1,270 1,271 1,277 1,301 1,307 1,329 1,332 1,345 1,348 1,353 1,357 1,369 1,386 1,422 1,435 1,463 1,469 1,538 1,623 1,654 1,655 1,656 1,657 1,675 1,677 1,783 1,788 1,790 1,791 1,796 1,800 1,807 1,854 1,867 1,880 1,883 1,895 1,904 1,909 1}
{4 1,6 1,14 1,29 1,39 1,51 1,55 1,65 1,87 1,152 1,204 1,210 1,277 1,285 1,308 1,328 1,329 1,338 1,345 1,369 1,388 1,391 1,415 1,438 1,453 1,461 1,463 1,468 1,483 1,528 1,539 1,541 1,557 1,567 1,603 1,623 1,657 1,690 1,693 1,703 1,759 1,779 1,782 1,783 1,790 1,793 1,796 1,807 1,810 1,869 1,872 1,879 1,883 1,895 1,913 1}
{4 1,93 1,114 1,198 1,220 1,239 1,280 1,321 1,369 1,388 1,391 1,420 1,515 1,518 1,538 1,539 1,599 1,707 1,782 1,783 1,796 1,801 1,807 1,823 1,854 1,913 1}
{4 1,15 1,29 1,37 1,43 1,169 1,180 1,195 1,277 1,300 1,328 1,369 1,388 1,427 1,434 1,478 1,521 1,528 1,538 1,552 1,591 1,659 1,679 1,709 1,739 1,782 1,783 1,786 1,796 1,799 1,807 1,870 1,895 1,909 1}
{4 1,10 1,12 1,14 1,37 1,39 1,43 1,48 1,51 1,52 1,54 1,55 1,56 1,61 1,70 1,82 1,85 1,86 1,93 1,114 1,170 1,179 1,182 1,183 1,186 1,204 1,208 1,210 1,222 1,270 1,275 1,277 1,286 1,289 1,300 1,321 1,329 1,336 1,345 1,361 1,362 1,365 1,369 1,372 1,388 1,391 1,433 1,439 1,451 1,470 1,478 1,495 1,497 1,505 1,516 1,518 1,528 1,536 1,539 1,541 1,548 1,557 1,604 1,643 1,644 1,647 1,657 1,667 1,679 1,685 1,691 1,695 1,709 1,751 1,759 1,763 1,764 1,779 1,783 1,789 1,796 1,801 1,805 1,807 1,823 1,842 1,846 1,860 1,861 1,863 1,864 1,867 1,871 1,872 1,875 1,879 1,883 1,894 1,895 1,904 1,909 1,911 1,913 1}
{4 1,6 1,39 1,42 1,82 1,85 1,115 1,123 1,223 1,321 1,322 1,328 1,332 1,369 1,411 1,470 1,481 1,495 1,528 1,587 1,616 1,652 1,659 1,715 1,783 1,794 1,807 1,854 1,863 1,867 1,875 1,890 1,895 1,913 1}
{4 1,6 1,37 1,39 1,45 1,56 1,61 1,75 1,78 1,82 1,106 1,110 1,114 1,123 1,196 1,204 1,207 1,213 1,243 1,277 1,294 1,297 1,300 1,318 1,328 1,329 1,332 1,347 1,349 1,357 1,361 1,369 1,380 1,385 1,388 1,398 1,417 1,419 1,426 1,444 1,462 1,464 1,493 1,515 1,528 1,529 1,536 1,552 1,553 1,577 1,583 1,597 1,647 1,657 1,679 1,739 1,763 1,764 1,769 1,782 1,783 1,795 1,796 1,799 1,807 1,823 1,849 1,854 1,865 1,867 1,869 1,875 1,883 1,895 1}
{4 1,6 1,13 1,39 1,45 1,148 1,165 1,177 1,195 1,202 1,205 1,214 1,233 1,258 1,277 1,300 1,322 1,345 1,361 1,365 1,407 1,417 1,433 1,453 1,464 1,500 1,523 1,528 1,538 1,541 1,573 1,600 1,657 1,688 1,747 1,755 1,783 1,796 1,807 1,845 1,854 1,875 1,913 1}
{4 1,6 1,13 1,14 1,18 1,24 1,29 1,35 1,37 1,39 1,42 1,43 1,51 1,56 1,58 1,61 1,82 1,87 1,97 1,114 1,115 1,132 1,163 1,164 1,166 1,170 1,179 1,182 1,183 1,189 1,191 1,204 1,220 1,222 1,242 1,246 1,253 1,257 1,258 1,260 1,273 1,277 1,286 1,289 1,292 1,299 1,300 1,304 1,313 1,321 1,328 1,329 1,343 1,346 1,358 1,361 1,365 1,369 1,371 1,372 1,377 1,380 1,383 1,384 1,388 1,391 1,411 1,417 1,455 1,456 1,463 1,470 1,493 1,497 1,500 1,509 1,510 1,518 1,525 1,528 1,536 1,538 1,539 1,541 1,549 1,559 1,580 1,587 1,592 1,597 1,607 1,617 1,657 1,670 1,674 1,679 1,683 1,691 1,695 1,696 1,709 1,714 1,725 1,726 1,729 1,745 1,746 1,748 1,762 1,764 1,782 1,783 1,784 1,785 1,787 1,790 1,796 1,798 1,802 1,807 1,821 1,823 1,831 1,833 1,834 1,840 1,854 1,860 1,863 1,865 1,872 1,875 1,879 1,883 1,893 1,904 1,909 1,911 1,913 1}
{4 1,39 1,61 1,72 1,88 1,318 1,332 1,344 1,345 1,361 1,369 1,388 1,417 1,423 1,439 1,554 1,601 1,622 1,629 1,741 1,763 1,783 1,786 1,796 1,807 1,854 1,887 1,903 1}
{4 1,5 1,12 1,18 1,39 1,51 1,55 1,61 1,68 1,82 1,94 1,105 1,108 1,114 1,128 1,144 1,177 1,181 1,204 1,207 1,228 1,270 1,275 1,277 1,305 1,326 1,327 1,331 1,361 1,365 1,369 1,388 1,391 1,402 1,411 1,441 1,453 1,470 1,478 1,494 1,501 1,518 1,528 1,541 1,545 1,552 1,588 1,600 1,659 1,709 1,714 1,717 1,763 1,764 1,782 1,783 1,796 1,807 1,853 1,854 1,869 1,879 1,885 1,887 1,913 1}
{29 1,37 1,39 1,104 1,115 1,116 1,171 1,222 1,228 1,258 1,277 1,388 1,450 1,455 1,491 1,516 1,528 1,536 1,761 1,771 1,783 1,913 1}
{4 1,6 1,24 1,32 1,37 1,39 1,43 1,51 1,123 1,146 1,182 1,195 1,207 1,209 1,213 1,220 1,226 1,277 1,305 1,355 1,357 1,361 1,369 1,388 1,391 1,409 1,417 1,479 1,509 1,513 1,518 1,525 1,528 1,536 1,538 1,552 1,555 1,560 1,600 1,619 1,657 1,670 1,679 1,696 1,709 1,745 1,763 1,768 1,783 1,788 1,798 1,807 1,812 1,834 1,852 1,854 1,867 1,869 1,875 1,908 1,909 1}
{4 1,29 1,32 1,39 1,43 1,51 1,54 1,55 1,61 1,82 1,86 1,87 1,91 1,92 1,114 1,123 1,131 1,161 1,175 1,182 1,214 1,220 1,223 1,228 1,241 1,277 1,286 1,289 1,302 1,329 1,332 1,336 1,361 1,365 1,369 1,383 1,388 1,391 1,425 1,451 1,470 1,474 1,478 1,496 1,497 1,528 1,538 1,541 1,548 1,588 1,651 1,657 1,763 1,783 1,786 1,799 1,807 1,854 1,860 1,863 1,895 1,905 1,909 1,911 1,913 1}
{4 1,15 1,24 1,39 1,41 1,51 1,56 1,83 1,103 1,114 1,115 1,182 1,213 1,225 1,228 1,245 1,270 1,277 1,288 1,300 1,305 1,318 1,319 1,321 1,352 1,357 1,361 1,363 1,369 1,382 1,386 1,388 1,391 1,402 1,416 1,421 1,433 1,439 1,449 1,452 1,458 1,490 1,501 1,503 1,528 1,533 1,536 1,542 1,545 1,548 1,552 1,591 1,592 1,601 1,602 1,625 1,659 1,677 1,679 1,681 1,695 1,707 1,709 1,717 1,752 1,753 1,761 1,763 1,782 1,783 1,784 1,796 1,801 1,807 1,826 1,836 1,837 1,854 1,856 1,858 1,859 1,870 1,883 1,885 1,895 1,913 1}
{0 1,1 1,4 1,24 1,29 1,39 1,43 1,51 1,65 1,73 1,93 1,123 1,194 1,204 1,274 1,277 1,295 1,329 1,353 1,362 1,365 1,377 1,413 1,435 1,455 1,470 1,518 1,528 1,536 1,541 1,571 1,587 1,683 1,715 1,729 1,770 1,775 1,781 1,783 1,789 1,796 1,807 1,875 1,909 1}
{4 1,6 1,13 1,24 1,29 1,37 1,39 1,45 1,51 1,55 1,56 1,61 1,65 1,82 1,93 1,106 1,113 1,115 1,116 1,148 1,152 1,158 1,162 1,165 1,177 1,182 1,183 1,192 1,193 1,194 1,195 1,202 1,204 1,205 1,214 1,222 1,223 1,233 1,235 1,238 1,253 1,258 1,265 1,268 1,272 1,277 1,289 1,290 1,291 1,300 1,305 1,322 1,329 1,345 1,346 1,357 1,358 1,361 1,365 1,369 1,372 1,377 1,382 1,388 1,391 1,392 1,395 1,407 1,417 1,428 1,433 1,441 1,453 1,455 1,456 1,461 1,462 1,464 1,485 1,491 1,500 1,509 1,518 1,519 1,523 1,528 1,536 1,538 1,541 1,560 1,568 1,573 1,578 1,579 1,587 1,589 1,600 1,607 1,611 1,622 1,642 1,655 1,657 1,672 1,674 1,688 1,691 1,694 1,695 1,742 1,745 1,747 1,749 1,755 1,772 1,776 1,782 1,783 1,784 1,788 1,790 1,796 1,801 1,807 1,817 1,823 1,830 1,831 1,835 1,845 1,854 1,860 1,863 1,875 1,879 1,883 1,903 1,913 1}
{4 1,24 1,39 1,43 1,51 1,54 1,55 1,56 1,61 1,82 1,83 1,94 1,114 1,116 1,183 1,204 1,207 1,218 1,220 1,225 1,228 1,268 1,277 1,286 1,288 1,311 1,337 1,339 1,365 1,369 1,388 1,391 1,392 1,402 1,409 1,441 1,452 1,460 1,466 1,470 1,472 1,486 1,489 1,490 1,501 1,509 1,515 1,518 1,525 1,528 1,538 1,539 1,542 1,552 1,554 1,591 1,603 1,611 1,615 1,618 1,631 1,647 1,656 1,657 1,663 1,709 1,732 1,750 1,752 1,753 1,782 1,783 1,788 1,791 1,807 1,812 1,815 1,825 1,859 1,867 1,879 1,884 1,890 1,909 1,912 1,913 1}
{4 1,15 1,24 1,29 1,39 1,43 1,49 1,55 1,61 1,94 1,104 1,114 1,136 1,176 1,187 1,211 1,228 1,247 1,264 1,267 1,277 1,303 1,307 1,308 1,310 1,318 1,321 1,329 1,332 1,344 1,347 1,357 1,361 1,365 1,369 1,386 1,388 1,391 1,402 1,404 1,417 1,427 1,428 1,433 1,439 1,449 1,455 1,460 1,493 1,495 1,518 1,521 1,528 1,529 1,536 1,537 1,538 1,657 1,662 1,679 1,703 1,709 1,714 1,721 1,739 1,755 1,763 1,779 1,782 1,783 1,785 1,786 1,790 1,796 1,798 1,807 1,812 1,846 1,854 1,863 1,865 1,879 1,881 1,903 1,909 1,911 1}
{4 1,29 1,39 1,41 1,45 1,56 1,82 1,123 1,197 1,211 1,214 1,222 1,271 1,277 1,308 1,328 1,345 1,361 1,365 1,388 1,470 1,515 1,518 1,528 1,538 1,548 1,591 1,603 1,669 1,695 1,775 1,777 1,782 1,783 1,867 1,869 1,913 1}
{4 1,21 1,29 1,39 1,40 1,50 1,51 1,56 1,61 1,65 1,68 1,82 1,89 1,97 1,174 1,178 1,182 1,214 1,277 1,278 1,286 1,287 1,355 1,369 1,380 1,435 1,468 1,485 1,493 1,515 1,528 1,536 1,541 1,543 1,591 1,663 1,688 1,697 1,711 1,714 1,725 1,761 1,783 1,807 1,823 1,913 1}
{4 1,6 1,7 1,14 1,15 1,16 1,22 1,23 1,24 1,26 1,29 1,32 1,35 1,37 1,39 1,41 1,43 1,44 1,46 1,48 1,49 1,51 1,53 1,54 1,55 1,56 1,61 1,62 1,66 1,67 1,70 1,71 1,73 1,75 1,76 1,78 1,79 1,82 1,83 1,85 1,86 1,87 1,89 1,91 1,92 1,94 1,97 1,105 1,109 1,111 1,114 1,115 1,117 1,119 1,122 1,123 1,126 1,127 1,132 1,136 1,137 1,140 1,141 1,145 1,148 1,149 1,152 1,153 1,170 1,171 1,174 1,176 1,177 1,179 1,180 1,181 1,192 1,195 1,196 1,203 1,204 1,206 1,207 1,208 1,210 1,211 1,213 1,218 1,223 1,224 1,226 1,228 1,232 1,233 1,235 1,239 1,240 1,243 1,244 1,245 1,246 1,251 1,252 1,261 1,264 1,267 1,268 1,270 1,271 1,272 1,277 1,281 1,282 1,286 1,294 1,295 1,296 1,300 1,301 1,303 1,305 1,306 1,307 1,308 1,310 1,311 1,313 1,317 1,318 1,321 1,322 1,325 1,326 1,328 1,329 1,332 1,335 1,344 1,345 1,347 1,350 1,353 1,354 1,357 1,359 1,361 1,365 1,369 1,378 1,379 1,386 1,388 1,391 1,396 1,397 1,402 1,409 1,412 1,417 1,419 1,422 1,423 1,425 1,426 1,433 1,434 1,437 1,441 1,442 1,445 1,449 1,453 1,454 1,456 1,457 1,462 1,463 1,464 1,465 1,467 1,468 1,470 1,471 1,476 1,478 1,481 1,482 1,488 1,491 1,493 1,495 1,497 1,498 1,501 1,505 1,508 1,509 1,512 1,514 1,515 1,518 1,519 1,521 1,524 1,525 1,528 1,529 1,530 1,532 1,536 1,538 1,539 1,541 1,552 1,553 1,555 1,559 1,565 1,568 1,572 1,575 1,577 1,579 1,580 1,583 1,586 1,597 1,600 1,601 1,603 1,615 1,623 1,624 1,625 1,631 1,634 1,635 1,643 1,647 1,648 1,654 1,656 1,657 1,659 1,660 1,667 1,669 1,676 1,677 1,680 1,682 1,687 1,695 1,701 1,703 1,708 1,709 1,713 1,714 1,716 1,717 1,724 1,730 1,734 1,735 1,738 1,744 1,746 1,752 1,753 1,763 1,764 1,769 1,770 1,775 1,779 1,781 1,782 1,783 1,784 1,785 1,786 1,788 1,789 1,790 1,792 1,793 1,795 1,796 1,798 1,799 1,800 1,801 1,802 1,804 1,805 1,807 1,812 1,813 1,815 1,816 1,821 1,823 1,824 1,832 1,833 1,834 1,835 1,836 1,843 1,851 1,852 1,854 1,856 1,859 1,863 1,864 1,865 1,866 1,867 1,869 1,871 1,872 1,873 1,874 1,875 1,877 1,879 1,880 1,881 1,882 1,883 1,884 1,887 1,893 1,894 1,895 1,898 1,901 1,903 1,904 1,908 1,909 1,910 1,911 1}
{4 1,6 1,7 1,15 1,26 1,29 1,31 1,37 1,39 1,44 1,45 1,46 1,51 1,55 1,56 1,61 1,65 1,83 1,86 1,100 1,108 1,114 1,115 1,121 1,140 1,144 1,152 1,153 1,169 1,181 1,194 1,197 1,207 1,229 1,231 1,239 1,248 1,253 1,264 1,275 1,276 1,277 1,286 1,301 1,311 1,328 1,329 1,339 1,342 1,361 1,369 1,375 1,388 1,390 1,391 1,392 1,399 1,402 1,410 1,430 1,442 1,450 1,453 1,456 1,463 1,469 1,494 1,495 1,501 1,515 1,518 1,528 1,529 1,535 1,536 1,552 1,554 1,558 1,567 1,591 1,595 1,627 1,629 1,638 1,645 1,657 1,666 1,673 1,674 1,682 1,703 1,704 1,707 1,709 1,714 1,723 1,752 1,758 1,760 1,761 1,782 1,783 1,784 1,786 1,788 1,790 1,791 1,797 1,803 1,805 1,807 1,812 1,834 1,836 1,837 1,840 1,846 1,851 1,854 1,875 1,879 1,883 1,890 1,895 1,907 1,909 1,911 1,913 1}
{4 1,6 1,22 1,24 1,37 1,39 1,51 1,56 1,107 1,159 1,178 1,250 1,277 1,279 1,288 1,300 1,329 1,342 1,343 1,361 1,365 1,369 1,388 1,391 1,433 1,445 1,458 1,470 1,498 1,528 1,548 1,605 1,653 1,690 1,697 1,709 1,713 1,714 1,725 1,746 1,783 1,786 1,788 1,796 1,807 1,816 1,834 1,836 1,837 1,841 1,851 1,872 1,883 1,909 1,913 1}
{4 1,15 1,28 1,39 1,51 1,183 1,223 1,271 1,281 1,286 1,295 1,307 1,329 1,361 1,369 1,386 1,388 1,391 1,417 1,460 1,536 1,555 1,580 1,635 1,656 1,657 1,676 1,695 1,724 1,746 1,783 1,790 1,793 1,796 1,801 1,823 1,834 1,837 1,854 1,860 1,867 1,877 1,882 1,883 1,885 1,898 1}
{4 1,6 1,7 1,19 1,24 1,37 1,39 1,41 1,43 1,46 1,51 1,52 1,53 1,54 1,55 1,56 1,61 1,70 1,82 1,83 1,84 1,85 1,114 1,115 1,123 1,146 1,152 1,157 1,160 1,164 1,165 1,169 1,171 1,177 1,189 1,191 1,192 1,199 1,204 1,207 1,210 1,227 1,228 1,236 1,239 1,243 1,250 1,260 1,267 1,270 1,277 1,280 1,286 1,291 1,293 1,296 1,300 1,303 1,304 1,306 1,310 1,321 1,324 1,329 1,331 1,332 1,342 1,344 1,345 1,346 1,352 1,360 1,361 1,365 1,368 1,369 1,383 1,388 1,391 1,402 1,411 1,422 1,425 1,427 1,433 1,442 1,444 1,449 1,453 1,457 1,463 1,464 1,468 1,470 1,471 1,472 1,478 1,482 1,493 1,495 1,496 1,509 1,515 1,516 1,518 1,528 1,536 1,538 1,541 1,548 1,552 1,554 1,559 1,588 1,589 1,590 1,601 1,605 1,644 1,651 1,657 1,662 1,667 1,672 1,681 1,682 1,690 1,695 1,709 1,714 1,717 1,718 1,737 1,751 1,755 1,763 1,782 1,783 1,785 1,786 1,787 1,788 1,790 1,791 1,792 1,793 1,796 1,798 1,799 1,800 1,805 1,807 1,819 1,820 1,821 1,828 1,831 1,832 1,837 1,841 1,846 1,849 1,854 1,858 1,859 1,863 1,865 1,867 1,868 1,870 1,872 1,876 1,877 1,879 1,883 1,887 1,890 1,891 1,898 1,909 1,913 1}
{4 1,6 1,14 1,21 1,22 1,24 1,32 1,36 1,37 1,39 1,51 1,54 1,56 1,57 1,61 1,82 1,83 1,87 1,107 1,114 1,115 1,123 1,136 1,154 1,159 1,164 1,166 1,168 1,175 1,177 1,191 1,204 1,207 1,209 1,211 1,213 1,214 1,222 1,224 1,235 1,264 1,277 1,280 1,284 1,286 1,292 1,300 1,305 1,315 1,321 1,322 1,328 1,329 1,330 1,331 1,332 1,343 1,361 1,365 1,369 1,386 1,388 1,391 1,399 1,408 1,417 1,419 1,433 1,437 1,441 1,445 1,453 1,462 1,468 1,481 1,491 1,493 1,498 1,520 1,521 1,528 1,529 1,531 1,536 1,543 1,545 1,548 1,552 1,567 1,609 1,619 1,621 1,630 1,634 1,647 1,649 1,657 1,699 1,703 1,707 1,709 1,714 1,725 1,731 1,758 1,763 1,767 1,777 1,779 1,782 1,783 1,786 1,788 1,790 1,792 1,793 1,796 1,804 1,807 1,833 1,836 1,838 1,851 1,854 1,857 1,859 1,865 1,867 1,870 1,872 1,876 1,883 1,885 1,891 1,892 1,895 1,909 1,913 1}
{4 1,5 1,24 1,39 1,51 1,55 1,56 1,61 1,66 1,76 1,81 1,82 1,83 1,85 1,87 1,89 1,92 1,94 1,109 1,120 1,123 1,146 1,152 1,170 1,181 1,187 1,218 1,222 1,228 1,239 1,245 1,248 1,257 1,260 1,270 1,286 1,294 1,295 1,313 1,321 1,329 1,342 1,361 1,365 1,368 1,369 1,388 1,391 1,402 1,419 1,423 1,427 1,438 1,451 1,453 1,456 1,470 1,491 1,495 1,497 1,505 1,518 1,521 1,528 1,530 1,536 1,548 1,554 1,575 1,576 1,577 1,578 1,588 1,596 1,655 1,656 1,657 1,659 1,660 1,669 1,675 1,681 1,695 1,699 1,702 1,704 1,709 1,763 1,764 1,769 1,770 1,779 1,782 1,783 1,784 1,785 1,786 1,790 1,796 1,800 1,804 1,807 1,820 1,834 1,854 1,859 1,865 1,867 1,869 1,872 1,880 1,882 1,883 1,887 1,895 1,909 1,911 1}
{4 1,6 1,24 1,37 1,43 1,53 1,82 1,97 1,123 1,128 1,130 1,138 1,144 1,208 1,210 1,275 1,277 1,317 1,335 1,339 1,361 1,365 1,369 1,388 1,391 1,402 1,453 1,458 1,468 1,470 1,478 1,491 1,494 1,496 1,497 1,509 1,518 1,521 1,523 1,528 1,538 1,539 1,552 1,559 1,567 1,603 1,627 1,657 1,660 1,668 1,703 1,709 1,758 1,763 1,764 1,775 1,782 1,783 1,789 1,791 1,792 1,793 1,796 1,807 1,821 1,858 1,859 1,898 1,902 1,909 1,913 1}
{4 1,7 1,21 1,22 1,24 1,26 1,30 1,38 1,39 1,51 1,52 1,56 1,61 1,63 1,82 1,89 1,94 1,96 1,106 1,107 1,111 1,114 1,115 1,123 1,159 1,161 1,166 1,167 1,178 1,204 1,207 1,223 1,232 1,239 1,250 1,277 1,286 1,293 1,305 1,314 1,318 1,328 1,329 1,342 1,357 1,365 1,369 1,388 1,391 1,402 1,421 1,428 1,466 1,481 1,491 1,495 1,496 1,498 1,505 1,512 1,515 1,518 1,521 1,528 1,536 1,541 1,543 1,551 1,553 1,568 1,569 1,599 1,606 1,611 1,628 1,629 1,652 1,653 1,660 1,667 1,678 1,679 1,709 1,716 1,754 1,782 1,783 1,786 1,788 1,789 1,790 1,796 1,807 1,814 1,816 1,824 1,834 1,835 1,837 1,844 1,851 1,859 1,862 1,872 1,879 1,883 1,891 1,909 1,913 1}
{4 1,24 1,27 1,29 1,37 1,39 1,43 1,45 1,51 1,75 1,81 1,82 1,83 1,87 1,94 1,115 1,120 1,123 1,130 1,153 1,170 1,181 1,195 1,204 1,210 1,228 1,235 1,248 1,257 1,269 1,277 1,280 1,300 1,302 1,308 1,325 1,328 1,329 1,353 1,357 1,359 1,361 1,365 1,369 1,374 1,388 1,391 1,426 1,450 1,453 1,463 1,493 1,497 1,515 1,518 1,528 1,529 1,536 1,539 1,552 1,554 1,567 1,578 1,585 1,624 1,625 1,647 1,656 1,709 1,716 1,744 1,752 1,763 1,782 1,783 1,784 1,788 1,790 1,792 1,807 1,819 1,834 1,836 1,846 1,859 1,865 1,867 1,868 1,869 1,875 1,883 1,895 1,909 1}
{4 1,6 1,14 1,24 1,29 1,33 1,37 1,39 1,43 1,45 1,54 1,55 1,56 1,61 1,67 1,82 1,87 1,97 1,122 1,123 1,128 1,137 1,146 1,162 1,163 1,176 1,198 1,205 1,207 1,208 1,209 1,211 1,228 1,243 1,257 1,263 1,268 1,270 1,271 1,277 1,286 1,300 1,321 1,331 1,358 1,361 1,365 1,368 1,369 1,388 1,391 1,409 1,427 1,442 1,458 1,459 1,482 1,483 1,491 1,496 1,497 1,498 1,513 1,515 1,518 1,528 1,532 1,539 1,541 1,549 1,552 1,560 1,591 1,659 1,709 1,714 1,716 1,752 1,755 1,763 1,779 1,782 1,783 1,786 1,789 1,790 1,791 1,792 1,793 1,796 1,799 1,800 1,802 1,804 1,807 1,809 1,834 1,846 1,852 1,854 1,858 1,865 1,869 1,871 1,873 1,877 1,883 1,895 1,906 1,909 1,913 1}
{4 1,17 1,18 1,19 1,28 1,37 1,39 1,49 1,51 1,55 1,56 1,61 1,82 1,85 1,86 1,94 1,96 1,111 1,113 1,114 1,115 1,123 1,137 1,143 1,146 1,160 1,166 1,177 1,182 1,183 1,187 1,195 1,204 1,209 1,230 1,232 1,240 1,243 1,244 1,250 1,255 1,266 1,267 1,277 1,286 1,300 1,321 1,325 1,328 1,329 1,332 1,339 1,361 1,369 1,371 1,374 1,379 1,383 1,386 1,388 1,390 1,391 1,392 1,413 1,416 1,427 1,428 1,433 1,449 1,461 1,467 1,470 1,471 1,491 1,501 1,502 1,506 1,518 1,521 1,528 1,529 1,531 1,536 1,538 1,541 1,548 1,551 1,552 1,553 1,555 1,559 1,567 1,588 1,589 1,592 1,607 1,608 1,610 1,612 1,615 1,623 1,628 1,631 1,642 1,646 1,657 1,663 1,668 1,669 1,672 1,673 1,678 1,679 1,680 1,681 1,684 1,691 1,695 1,697 1,714 1,725 1,743 1,746 1,752 1,755 1,763 1,772 1,779 1,782 1,783 1,788 1,789 1,792 1,793 1,796 1,800 1,802 1,804 1,805 1,807 1,809 1,812 1,832 1,834 1,846 1,854 1,859 1,863 1,867 1,869 1,872 1,873 1,874 1,875 1,879 1,883 1,887 1,895 1,904 1,913 1}
{4 1,7 1,14 1,37 1,39 1,41 1,55 1,56 1,61 1,66 1,71 1,82 1,86 1,89 1,92 1,108 1,114 1,123 1,128 1,146 1,149 1,168 1,187 1,188 1,196 1,210 1,226 1,228 1,244 1,251 1,252 1,277 1,281 1,286 1,304 1,307 1,308 1,310 1,321 1,324 1,328 1,329 1,332 1,333 1,345 1,347 1,349 1,361 1,365 1,369 1,379 1,386 1,388 1,389 1,391 1,414 1,423 1,427 1,439 1,453 1,487 1,491 1,495 1,496 1,502 1,508 1,514 1,515 1,518 1,521 1,524 1,528 1,535 1,536 1,541 1,547 1,548 1,555 1,558 1,586 1,597 1,657 1,660 1,716 1,746 1,763 1,773 1,779 1,782 1,783 1,793 1,796 1,804 1,807 1,811 1,812 1,826 1,834 1,837 1,849 1,854 1,863 1,869 1,870 1,875 1,880 1,883 1,890 1,903 1,904 1}
{4 1,39 1,46 1,55 1,61 1,71 1,93 1,104 1,123 1,148 1,152 1,160 1,168 1,170 1,171 1,175 1,189 1,204 1,256 1,266 1,296 1,321 1,329 1,332 1,346 1,354 1,357 1,361 1,369 1,388 1,391 1,425 1,464 1,495 1,505 1,516 1,528 1,532 1,536 1,538 1,539 1,541 1,580 1,604 1,623 1,627 1,651 1,657 1,662 1,672 1,716 1,729 1,752 1,763 1,766 1,783 1,784 1,788 1,796 1,799 1,807 1,831 1,836 1,849 1,854 1,856 1,859 1,867 1,883 1,884 1,913 1}
{4 1,6 1,18 1,22 1,26 1,39 1,45 1,55 1,61 1,63 1,70 1,85 1,114 1,177 1,196 1,210 1,211 1,254 1,266 1,299 1,321 1,328 1,329 1,342 1,357 1,361 1,369 1,391 1,394 1,409 1,411 1,424 1,433 1,463 1,491 1,496 1,506 1,528 1,541 1,552 1,555 1,630 1,679 1,682 1,715 1,763 1,773 1,779 1,782 1,783 1,788 1,796 1,833 1,835 1,854 1,863 1,891 1,904 1,913 1}
{4 1,17 1,32 1,39 1,53 1,66 1,82 1,114 1,261 1,271 1,286 1,361 1,369 1,539 1,592 1,601 1,715 1,763 1,769 1,783 1,796 1,895 1,903 1}
{4 1,6 1,18 1,29 1,39 1,51 1,55 1,80 1,82 1,83 1,85 1,88 1,114 1,115 1,123 1,128 1,131 1,144 1,168 1,170 1,195 1,197 1,199 1,205 1,208 1,210 1,223 1,228 1,260 1,271 1,277 1,300 1,305 1,310 1,329 1,332 1,345 1,358 1,361 1,365 1,369 1,386 1,388 1,389 1,391 1,402 1,417 1,422 1,433 1,437 1,457 1,463 1,470 1,471 1,494 1,497 1,512 1,518 1,521 1,528 1,529 1,538 1,541 1,548 1,549 1,567 1,588 1,601 1,626 1,657 1,659 1,660 1,673 1,679 1,695 1,701 1,703 1,704 1,714 1,716 1,717 1,720 1,751 1,755 1,763 1,779 1,782 1,783 1,784 1,786 1,792 1,793 1,796 1,804 1,805 1,807 1,836 1,840 1,845 1,854 1,858 1,859 1,864 1,865 1,869 1,873 1,883 1,894 1,895 1,904 1,909 1,910 1,911 1,913 1}
{4 1,32 1,39 1,45 1,46 1,61 1,70 1,82 1,94 1,123 1,158 1,174 1,177 1,178 1,222 1,225 1,231 1,268 1,277 1,300 1,329 1,336 1,361 1,365 1,369 1,377 1,383 1,386 1,391 1,433 1,455 1,470 1,491 1,506 1,536 1,541 1,548 1,561 1,587 1,597 1,657 1,683 1,712 1,714 1,780 1,783 1,792 1,807 1,822 1,836 1,891 1,895 1,904 1,909 1,913 1}
{29 1,39 1,45 1,49 1,51 1,55 1,70 1,82 1,123 1,154 1,173 1,195 1,228 1,230 1,277 1,286 1,303 1,332 1,369 1,388 1,399 1,433 1,470 1,479 1,491 1,512 1,518 1,528 1,529 1,536 1,541 1,555 1,557 1,716 1,781 1,783 1,790 1,796 1,807 1,809 1,816 1,863 1,875 1,879 1,885 1}
{4 1,29 1,37 1,39 1,43 1,44 1,51 1,55 1,56 1,68 1,76 1,82 1,87 1,115 1,123 1,130 1,183 1,185 1,204 1,205 1,228 1,237 1,244 1,277 1,308 1,329 1,332 1,361 1,369 1,388 1,391 1,423 1,456 1,468 1,470 1,497 1,509 1,528 1,536 1,548 1,567 1,585 1,604 1,620 1,657 1,659 1,669 1,716 1,765 1,766 1,782 1,783 1,796 1,807 1,809 1,837 1,840 1,873 1,875 1,877 1,883 1,906 1,909 1,911 1,913 1}
{4 1,6 1,23 1,24 1,29 1,32 1,37 1,39 1,43 1,51 1,54 1,55 1,70 1,85 1,114 1,175 1,195 1,224 1,228 1,237 1,277 1,282 1,316 1,321 1,328 1,331 1,339 1,342 1,361 1,365 1,369 1,377 1,387 1,391 1,393 1,400 1,402 1,409 1,417 1,418 1,441 1,444 1,453 1,477 1,493 1,510 1,518 1,522 1,528 1,529 1,536 1,538 1,541 1,552 1,657 1,712 1,715 1,740 1,749 1,752 1,755 1,782 1,783 1,788 1,793 1,796 1,829 1,854 1,875 1,903 1,913 1}
{173 1,213 1,277 1,457 1,685 1,783 1,807 1}
{4 1,24 1,39 1,43 1,51 1,56 1,61 1,82 1,122 1,144 1,168 1,170 1,195 1,199 1,204 1,207 1,210 1,227 1,228 1,275 1,277 1,286 1,300 1,313 1,321 1,331 1,352 1,361 1,365 1,369 1,388 1,389 1,391 1,393 1,402 1,439 1,442 1,449 1,450 1,470 1,494 1,508 1,515 1,518 1,528 1,538 1,539 1,545 1,548 1,567 1,587 1,625 1,626 1,627 1,657 1,659 1,660 1,704 1,715 1,716 1,763 1,775 1,779 1,782 1,783 1,785 1,788 1,790 1,796 1,804 1,805 1,807 1,823 1,826 1,829 1,832 1,834 1,836 1,846 1,854 1,869 1,872 1,877 1,879 1,883 1,885 1,909 1,911 1,913 1}
{4 1,23 1,24 1,39 1,43 1,45 1,51 1,57 1,80 1,121 1,123 1,166 1,207 1,228 1,234 1,279 1,300 1,329 1,339 1,342 1,361 1,365 1,369 1,376 1,388 1,402 1,404 1,453 1,457 1,477 1,505 1,518 1,522 1,528 1,537 1,541 1,548 1,592 1,709 1,725 1,730 1,752 1,767 1,783 1,785 1,786 1,793 1,807 1,852 1,859 1,895 1,913 1}
{4 1,6 1,16 1,18 1,24 1,37 1,39 1,41 1,51 1,53 1,55 1,56 1,61 1,62 1,70 1,75 1,76 1,80 1,82 1,85 1,87 1,91 1,97 1,114 1,115 1,123 1,152 1,162 1,168 1,174 1,177 1,181 1,183 1,196 1,208 1,209 1,210 1,212 1,224 1,230 1,235 1,252 1,261 1,264 1,266 1,277 1,286 1,295 1,305 1,306 1,313 1,321 1,328 1,329 1,332 1,336 1,345 1,350 1,352 1,353 1,356 1,361 1,362 1,365 1,369 1,379 1,385 1,388 1,391 1,393 1,397 1,398 1,402 1,405 1,412 1,417 1,426 1,428 1,433 1,435 1,437 1,439 1,441 1,445 1,449 1,453 1,460 1,468 1,470 1,479 1,488 1,495 1,496 1,506 1,509 1,512 1,513 1,514 1,515 1,518 1,519 1,523 1,528 1,529 1,536 1,541 1,545 1,553 1,559 1,585 1,588 1,594 1,597 1,599 1,600 1,604 1,609 1,624 1,629 1,630 1,635 1,638 1,647 1,649 1,657 1,660 1,676 1,679 1,680 1,694 1,699 1,703 1,708 1,709 1,713 1,714 1,735 1,739 1,746 1,752 1,758 1,762 1,763 1,764 1,767 1,769 1,782 1,783 1,784 1,785 1,786 1,788 1,790 1,796 1,800 1,807 1,811 1,812 1,823 1,829 1,831 1,834 1,837 1,849 1,854 1,858 1,863 1,864 1,865 1,867 1,873 1,879 1,880 1,883 1,889 1,895 1,903 1,904 1,909 1,911 1}
{4 1,6 1,11 1,24 1,30 1,32 1,37 1,39 1,43 1,46 1,51 1,53 1,55 1,82 1,83 1,85 1,88 1,89 1,91 1,97 1,108 1,114 1,115 1,123 1,128 1,130 1,135 1,137 1,138 1,144 1,152 1,160 1,195 1,208 1,210 1,214 1,218 1,239 1,243 1,248 1,249 1,275 1,277 1,303 1,317 1,321 1,328 1,329 1,332 1,335 1,339 1,342 1,344 1,350 1,361 1,365 1,369 1,382 1,388 1,390 1,391 1,402 1,409 1,417 1,428 1,442 1,453 1,454 1,458 1,463 1,468 1,470 1,478 1,491 1,494 1,495 1,496 1,497 1,500 1,509 1,515 1,518 1,521 1,523 1,528 1,536 1,538 1,539 1,541 1,548 1,552 1,554 1,559 1,567 1,591 1,603 1,614 1,626 1,627 1,632 1,646 1,650 1,656 1,657 1,659 1,660 1,668 1,672 1,679 1,696 1,701 1,703 1,709 1,714 1,758 1,763 1,764 1,772 1,775 1,777 1,782 1,783 1,785 1,788 1,789 1,790 1,791 1,792 1,793 1,796 1,800 1,807 1,810 1,821 1,831 1,852 1,854 1,855 1,858 1,859 1,867 1,869 1,875 1,883 1,898 1,902 1,906 1,909 1,913 1}
{4 1,6 1,8 1,39 1,42 1,55 1,85 1,115 1,123 1,152 1,223 1,321 1,322 1,328 1,332 1,369 1,411 1,470 1,481 1,587 1,616 1,652 1,659 1,701 1,715 1,716 1,721 1,783 1,794 1,807 1,854 1,863 1,867 1,875 1,890 1,913 1}
{4 1,14 1,32 1,39 1,43 1,51 1,54 1,76 1,82 1,87 1,88 1,94 1,115 1,123 1,128 1,134 1,136 1,162 1,180 1,204 1,210 1,211 1,243 1,259 1,262 1,277 1,292 1,303 1,319 1,323 1,332 1,361 1,365 1,369 1,388 1,389 1,391 1,402 1,428 1,433 1,434 1,437 1,441 1,471 1,491 1,492 1,528 1,541 1,552 1,585 1,625 1,630 1,657 1,667 1,698 1,708 1,709 1,745 1,763 1,764 1,782 1,783 1,785 1,786 1,788 1,789 1,790 1,793 1,804 1,807 1,809 1,859 1,863 1,867 1,875 1,877 1,879 1,902 1,909 1}
{4 1,6 1,14 1,29 1,36 1,37 1,39 1,43 1,45 1,55 1,56 1,87 1,163 1,199 1,207 1,211 1,228 1,268 1,277 1,286 1,300 1,361 1,369 1,388 1,391 1,409 1,495 1,504 1,518 1,528 1,539 1,591 1,707 1,752 1,755 1,783 1,788 1,790 1,796 1,807 1,812 1,834 1,871 1,873 1,877 1,883 1,913 1}
{4 1,21 1,39 1,51 1,61 1,65 1,82 1,83 1,94 1,114 1,115 1,123 1,137 1,164 1,174 1,192 1,204 1,209 1,232 1,243 1,245 1,267 1,277 1,278 1,286 1,300 1,305 1,326 1,329 1,342 1,361 1,365 1,369 1,384 1,388 1,402 1,425 1,433 1,441 1,442 1,457 1,495 1,518 1,528 1,536 1,538 1,541 1,552 1,597 1,604 1,621 1,653 1,657 1,709 1,712 1,722 1,723 1,726 1,745 1,746 1,763 1,772 1,779 1,782 1,783 1,784 1,790 1,792 1,796 1,799 1,804 1,805 1,807 1,849 1,858 1,909 1,913 1}
{4 1,6 1,10 1,14 1,22 1,29 1,39 1,43 1,51 1,55 1,61 1,76 1,82 1,85 1,95 1,104 1,114 1,115 1,123 1,171 1,181 1,220 1,228 1,270 1,277 1,294 1,321 1,326 1,328 1,329 1,338 1,339 1,344 1,345 1,361 1,369 1,377 1,388 1,391 1,397 1,402 1,407 1,433 1,444 1,453 1,467 1,475 1,483 1,491 1,492 1,497 1,510 1,528 1,536 1,538 1,548 1,556 1,560 1,567 1,613 1,632 1,657 1,678 1,693 1,708 1,714 1,716 1,722 1,768 1,782 1,783 1,788 1,791 1,793 1,796 1,798 1,807 1,810 1,811 1,823 1,859 1,863 1,865 1,895 1,899 1}
{4 1,6 1,24 1,39 1,43 1,53 1,55 1,60 1,61 1,82 1,88 1,89 1,91 1,97 1,114 1,123 1,128 1,138 1,144 1,152 1,204 1,210 1,228 1,248 1,275 1,277 1,300 1,317 1,321 1,335 1,339 1,352 1,361 1,365 1,369 1,385 1,388 1,391 1,393 1,402 1,429 1,453 1,454 1,468 1,470 1,478 1,494 1,496 1,497 1,509 1,518 1,520 1,521 1,523 1,528 1,538 1,539 1,541 1,547 1,548 1,552 1,559 1,560 1,567 1,569 1,603 1,625 1,627 1,637 1,657 1,660 1,668 1,709 1,758 1,763 1,764 1,782 1,783 1,789 1,791 1,792 1,793 1,796 1,807 1,821 1,829 1,832 1,854 1,859 1,867 1,872 1,883 1,885 1,902 1,909 1,913 1}
{4 1,6 1,14 1,18 1,21 1,37 1,39 1,43 1,44 1,51 1,82 1,160 1,162 1,204 1,228 1,242 1,244 1,268 1,270 1,277 1,278 1,329 1,361 1,369 1,376 1,388 1,391 1,392 1,401 1,431 1,433 1,444 1,454 1,456 1,470 1,491 1,497 1,518 1,536 1,541 1,548 1,552 1,559 1,581 1,587 1,592 1,637 1,666 1,672 1,695 1,725 1,781 1,782 1,783 1,788 1,790 1,792 1,793 1,804 1,807 1,867 1,871 1,872 1,879 1,883 1,895 1,913 1}
{13 1,277 1,303 1,470 1,587 1,715 1,781 1,783 1,849 1,895 1}
{4 1,32 1,39 1,43 1,45 1,56 1,123 1,150 1,215 1,270 1,300 1,336 1,361 1,377 1,449 1,470 1,495 1,505 1,536 1,639 1,781 1,783 1,913 1}
{4 1,6 1,18 1,22 1,26 1,37 1,39 1,45 1,47 1,55 1,61 1,63 1,70 1,85 1,114 1,117 1,177 1,196 1,210 1,211 1,222 1,227 1,228 1,236 1,244 1,254 1,266 1,299 1,310 1,321 1,328 1,329 1,330 1,342 1,357 1,361 1,365 1,369 1,391 1,394 1,397 1,402 1,409 1,411 1,424 1,431 1,433 1,455 1,463 1,479 1,491 1,496 1,506 1,518 1,528 1,536 1,541 1,552 1,554 1,555 1,618 1,629 1,630 1,657 1,678 1,679 1,682 1,694 1,715 1,734 1,763 1,773 1,777 1,779 1,782 1,783 1,788 1,796 1,833 1,835 1,849 1,854 1,863 1,891 1,893 1,904 1,909 1,911 1,913 1}
{4 1,6 1,14 1,16 1,24 1,30 1,37 1,39 1,41 1,44 1,45 1,54 1,55 1,56 1,61 1,70 1,71 1,72 1,75 1,78 1,81 1,82 1,88 1,106 1,110 1,114 1,123 1,168 1,177 1,196 1,204 1,207 1,210 1,213 1,228 1,239 1,243 1,264 1,267 1,277 1,286 1,294 1,297 1,300 1,305 1,307 1,308 1,310 1,318 1,321 1,328 1,329 1,330 1,332 1,344 1,345 1,347 1,349 1,350 1,353 1,357 1,361 1,365 1,369 1,380 1,385 1,386 1,388 1,391 1,397 1,398 1,409 1,411 1,417 1,419 1,426 1,433 1,443 1,444 1,445 1,453 1,460 1,462 1,464 1,469 1,478 1,493 1,495 1,497 1,515 1,518 1,528 1,529 1,536 1,538 1,552 1,553 1,560 1,575 1,577 1,583 1,597 1,603 1,618 1,619 1,631 1,634 1,647 1,648 1,655 1,657 1,659 1,660 1,666 1,667 1,679 1,682 1,687 1,695 1,705 1,709 1,731 1,739 1,746 1,755 1,763 1,764 1,767 1,769 1,782 1,783 1,788 1,790 1,791 1,794 1,795 1,796 1,799 1,807 1,810 1,812 1,823 1,832 1,834 1,849 1,854 1,863 1,865 1,867 1,869 1,875 1,883 1,888 1,895 1,903 1,913 1}
{4 1,6 1,14 1,15 1,32 1,37 1,39 1,56 1,58 1,61 1,70 1,82 1,83 1,92 1,93 1,114 1,120 1,121 1,130 1,170 1,177 1,182 1,183 1,186 1,195 1,196 1,204 1,205 1,208 1,210 1,249 1,266 1,271 1,274 1,277 1,291 1,299 1,307 1,308 1,321 1,329 1,332 1,338 1,344 1,345 1,357 1,361 1,365 1,369 1,382 1,391 1,392 1,402 1,407 1,439 1,449 1,453 1,454 1,457 1,459 1,468 1,470 1,482 1,491 1,497 1,505 1,508 1,512 1,515 1,518 1,521 1,528 1,529 1,536 1,541 1,548 1,552 1,553 1,557 1,564 1,569 1,588 1,600 1,603 1,617 1,657 1,659 1,666 1,667 1,680 1,695 1,702 1,703 1,705 1,709 1,714 1,719 1,740 1,746 1,763 1,767 1,782 1,783 1,784 1,786 1,788 1,796 1,800 1,804 1,807 1,810 1,818 1,819 1,822 1,834 1,835 1,849 1,853 1,854 1,863 1,865 1,867 1,868 1,869 1,872 1,875 1,883 1,894 1,907 1,909 1}
{4 1,114 1,116 1,123 1,132 1,204 1,277 1,318 1,329 1,345 1,361 1,365 1,369 1,388 1,478 1,500 1,501 1,518 1,521 1,525 1,552 1,616 1,647 1,725 1,782 1,788 1,834 1,909 1,911 1}
{4 1,6 1,19 1,39 1,51 1,54 1,55 1,56 1,77 1,82 1,85 1,88 1,94 1,123 1,134 1,168 1,187 1,207 1,208 1,210 1,211 1,228 1,239 1,243 1,259 1,267 1,277 1,292 1,294 1,295 1,300 1,303 1,304 1,318 1,319 1,322 1,323 1,326 1,329 1,331 1,332 1,347 1,348 1,357 1,361 1,365 1,368 1,369 1,388 1,389 1,391 1,402 1,423 1,428 1,433 1,434 1,437 1,439 1,441 1,450 1,463 1,470 1,491 1,492 1,510 1,515 1,518 1,528 1,536 1,541 1,552 1,625 1,629 1,630 1,647 1,657 1,668 1,686 1,708 1,745 1,763 1,770 1,782 1,783 1,785 1,786 1,788 1,789 1,790 1,793 1,804 1,807 1,849 1,863 1,875 1,877 1,879 1,881 1,887 1,893 1,895 1,896 1,903 1,904 1,909 1,910 1,911 1,913 1}
{4 1,6 1,26 1,32 1,39 1,43 1,55 1,59 1,70 1,82 1,83 1,100 1,123 1,128 1,130 1,132 1,150 1,168 1,169 1,170 1,204 1,205 1,211 1,223 1,228 1,266 1,270 1,271 1,277 1,286 1,321 1,329 1,361 1,364 1,365 1,369 1,388 1,391 1,392 1,409 1,432 1,433 1,442 1,497 1,518 1,528 1,536 1,541 1,549 1,561 1,565 1,588 1,642 1,659 1,679 1,699 1,709 1,721 1,765 1,777 1,782 1,783 1,785 1,788 1,789 1,790 1,796 1,802 1,805 1,807 1,827 1,828 1,846 1,849 1,854 1,860 1,861 1,864 1,869 1,872 1,874 1,883 1,903 1,909 1,911 1}
{4 1,17 1,31 1,33 1,39 1,51 1,52 1,61 1,82 1,114 1,123 1,135 1,166 1,235 1,255 1,277 1,292 1,369 1,380 1,388 1,442 1,463 1,478 1,515 1,518 1,528 1,539 1,541 1,548 1,591 1,725 1,771 1,782 1,783 1,859 1,879 1}
{4 1,6 1,15 1,24 1,32 1,37 1,39 1,43 1,51 1,55 1,56 1,82 1,91 1,114 1,123 1,140 1,146 1,148 1,153 1,182 1,204 1,207 1,208 1,213 1,220 1,226 1,228 1,233 1,246 1,261 1,262 1,266 1,267 1,277 1,286 1,305 1,328 1,355 1,357 1,361 1,365 1,369 1,388 1,391 1,409 1,453 1,476 1,478 1,479 1,509 1,513 1,518 1,528 1,536 1,538 1,539 1,552 1,555 1,560 1,571 1,620 1,657 1,670 1,696 1,709 1,743 1,745 1,763 1,767 1,768 1,782 1,783 1,786 1,788 1,790 1,791 1,798 1,807 1,812 1,813 1,823 1,834 1,852 1,867 1,869 1,875 1,879 1,883 1,884 1,908 1,909 1,911 1,913 1}
{4 1,24 1,39 1,54 1,55 1,87 1,114 1,115 1,152 1,168 1,170 1,181 1,204 1,277 1,300 1,327 1,361 1,369 1,388 1,391 1,427 1,470 1,515 1,528 1,601 1,614 1,630 1,638 1,650 1,716 1,777 1,782 1,783 1,790 1,794 1,796 1,804 1,807 1,837 1,852 1,865 1,867 1,872 1,877 1,898 1}
{4 1,5 1,39 1,75 1,82 1,114 1,277 1,305 1,308 1,329 1,361 1,375 1,386 1,388 1,490 1,491 1,518 1,592 1,595 1,629 1,631 1,657 1,702 1,703 1,714 1,715 1,725 1,779 1,782 1,783 1,790 1,793 1,796 1,807 1,846 1,867 1,869 1,879 1,883 1,895 1}
{7 1,56 1,82 1,114 1,264 1,365 1,391 1,476 1,497 1,518 1,782 1,783 1,796 1,812 1,834 1,854 1,865 1,895 1,913 1}
{4 1,56 1,82 1,114 1,115 1,153 1,332 1,345 1,369 1,388 1,391 1,433 1,477 1,518 1,528 1,532 1,552 1,567 1,573 1,580 1,608 1,620 1,642 1,647 1,657 1,721 1,783 1,799 1,807 1,825 1,831 1,854 1,867 1,909 1}
{4 1,39 1,43 1,51 1,52 1,93 1,168 1,177 1,222 1,271 1,277 1,336 1,357 1,361 1,377 1,386 1,409 1,420 1,433 1,453 1,470 1,497 1,528 1,541 1,542 1,552 1,553 1,574 1,592 1,657 1,677 1,697 1,715 1,781 1,783 1,788 1,792 1,804 1,807 1,823 1,854 1,867 1}
{43 1,45 1,168 1,321 1,361 1,365 1,369 1,391 1,407 1,470 1,528 1,683 1,715 1,781 1,854 1,888 1,895 1,913 1}
{4 1,6 1,14 1,18 1,30 1,31 1,32 1,37 1,39 1,44 1,46 1,67 1,82 1,114 1,154 1,177 1,182 1,204 1,208 1,210 1,245 1,281 1,300 1,305 1,306 1,307 1,328 1,361 1,365 1,391 1,392 1,396 1,407 1,409 1,435 1,441 1,467 1,478 1,491 1,497 1,515 1,528 1,536 1,541 1,553 1,655 1,657 1,669 1,681 1,714 1,740 1,751 1,763 1,779 1,782 1,783 1,796 1,804 1,807 1,854 1,867 1,869 1,883 1,904 1}
{4 1,6 1,14 1,18 1,21 1,39 1,43 1,44 1,51 1,56 1,61 1,82 1,83 1,85 1,114 1,117 1,160 1,204 1,228 1,242 1,267 1,268 1,277 1,278 1,326 1,329 1,354 1,361 1,364 1,369 1,376 1,388 1,391 1,392 1,407 1,433 1,437 1,439 1,442 1,444 1,453 1,454 1,456 1,470 1,491 1,497 1,528 1,536 1,541 1,548 1,552 1,559 1,592 1,600 1,601 1,620 1,637 1,657 1,666 1,672 1,703 1,714 1,725 1,782 1,783 1,788 1,791 1,792 1,796 1,804 1,807 1,824 1,852 1,867 1,870 1,872 1,879 1,883 1,895 1,909 1}
{4 1,24 1,29 1,39 1,82 1,95 1,114 1,173 1,261 1,262 1,305 1,317 1,332 1,345 1,361 1,369 1,388 1,396 1,417 1,426 1,433 1,460 1,470 1,497 1,508 1,513 1,519 1,533 1,630 1,631 1,724 1,734 1,782 1,783 1,796 1,807 1,867 1,870 1,875 1,902 1,913 1}
{4 1,6 1,14 1,18 1,29 1,33 1,37 1,39 1,41 1,55 1,56 1,61 1,70 1,82 1,85 1,86 1,90 1,114 1,122 1,123 1,130 1,144 1,168 1,170 1,195 1,210 1,228 1,259 1,270 1,271 1,274 1,275 1,277 1,286 1,321 1,325 1,326 1,329 1,331 1,361 1,369 1,388 1,409 1,442 1,450 1,468 1,484 1,497 1,508 1,513 1,518 1,528 1,536 1,537 1,539 1,541 1,552 1,604 1,626 1,638 1,643 1,660 1,682 1,698 1,701 1,714 1,750 1,759 1,760 1,763 1,764 1,782 1,783 1,790 1,791 1,800 1,807 1,812 1,824 1,834 1,846 1,852 1,854 1,858 1,863 1,864 1,883 1,887 1,895 1,904 1}
{4 1,5 1,6 1,7 1,12 1,15 1,18 1,24 1,25 1,26 1,29 1,32 1,37 1,39 1,40 1,43 1,46 1,51 1,54 1,55 1,56 1,57 1,58 1,61 1,82 1,85 1,88 1,92 1,96 1,112 1,114 1,115 1,123 1,126 1,133 1,136 1,137 1,166 1,168 1,174 1,189 1,195 1,204 1,207 1,210 1,211 1,213 1,228 1,232 1,233 1,245 1,247 1,250 1,269 1,273 1,277 1,279 1,281 1,285 1,300 1,305 1,307 1,311 1,322 1,328 1,329 1,335 1,339 1,344 1,357 1,358 1,361 1,363 1,365 1,369 1,380 1,388 1,389 1,391 1,409 1,428 1,433 1,435 1,437 1,453 1,454 1,463 1,470 1,481 1,488 1,491 1,495 1,496 1,497 1,501 1,508 1,510 1,515 1,516 1,518 1,520 1,521 1,523 1,524 1,528 1,533 1,536 1,538 1,541 1,546 1,548 1,551 1,552 1,553 1,554 1,567 1,568 1,580 1,588 1,603 1,604 1,613 1,622 1,627 1,638 1,642 1,657 1,659 1,660 1,663 1,667 1,668 1,669 1,679 1,688 1,696 1,697 1,703 1,709 1,714 1,715 1,719 1,721 1,725 1,741 1,743 1,746 1,752 1,755 1,763 1,782 1,783 1,784 1,785 1,786 1,788 1,790 1,791 1,793 1,796 1,807 1,810 1,820 1,822 1,825 1,831 1,832 1,834 1,851 1,854 1,859 1,861 1,865 1,866 1,867 1,869 1,870 1,873 1,875 1,877 1,879 1,883 1,887 1,890 1,898 1,903 1,907 1,909 1,911 1}
{4 1,39 1,51 1,54 1,55 1,61 1,76 1,82 1,91 1,122 1,171 1,179 1,209 1,210 1,228 1,277 1,286 1,310 1,332 1,361 1,369 1,388 1,391 1,396 1,397 1,417 1,434 1,454 1,462 1,470 1,495 1,497 1,528 1,536 1,552 1,572 1,618 1,634 1,647 1,714 1,746 1,763 1,773 1,780 1,783 1,785 1,789 1,790 1,796 1,800 1,801 1,804 1,807 1,854 1,864 1,865 1,875 1,879 1,880 1,898 1,903 1,909 1,913 1}
{4 1,6 1,21 1,32 1,37 1,39 1,43 1,51 1,53 1,54 1,55 1,56 1,61 1,82 1,92 1,114 1,115 1,116 1,120 1,123 1,134 1,135 1,146 1,152 1,157 1,164 1,168 1,171 1,174 1,177 1,185 1,204 1,207 1,211 1,214 1,228 1,233 1,236 1,242 1,243 1,250 1,254 1,256 1,267 1,271 1,273 1,277 1,286 1,296 1,299 1,303 1,304 1,307 1,310 1,320 1,331 1,332 1,339 1,342 1,344 1,345 1,360 1,361 1,365 1,369 1,370 1,380 1,383 1,386 1,387 1,388 1,391 1,402 1,409 1,410 1,411 1,422 1,425 1,433 1,449 1,457 1,464 1,468 1,470 1,471 1,491 1,493 1,497 1,509 1,518 1,528 1,536 1,541 1,548 1,552 1,553 1,559 1,569 1,588 1,600 1,617 1,618 1,623 1,644 1,651 1,657 1,659 1,660 1,662 1,672 1,673 1,680 1,682 1,700 1,709 1,714 1,715 1,716 1,752 1,762 1,763 1,777 1,782 1,783 1,785 1,787 1,788 1,790 1,791 1,793 1,794 1,796 1,804 1,807 1,819 1,832 1,836 1,841 1,846 1,849 1,854 1,859 1,863 1,865 1,867 1,872 1,873 1,877 1,883 1,887 1,889 1,890 1,895 1,906 1,909 1}
{24 1,39 1,51 1,114 1,187 1,204 1,210 1,235 1,388 1,402 1,439 1,450 1,505 1,528 1,588 1,657 1,725 1,746 1,763 1,782 1,783 1,788 1,790 1,798 1,807 1,834 1,865 1,890 1,909 1}
{4 1,14 1,32 1,37 1,39 1,43 1,51 1,54 1,57 1,76 1,82 1,87 1,88 1,93 1,94 1,106 1,115 1,116 1,123 1,128 1,134 1,136 1,162 1,180 1,198 1,204 1,208 1,210 1,211 1,243 1,259 1,262 1,277 1,292 1,300 1,303 1,313 1,319 1,323 1,324 1,329 1,332 1,361 1,365 1,369 1,386 1,388 1,389 1,391 1,402 1,428 1,433 1,434 1,437 1,439 1,441 1,455 1,471 1,491 1,492 1,528 1,541 1,549 1,552 1,575 1,585 1,592 1,600 1,625 1,630 1,657 1,667 1,668 1,698 1,708 1,709 1,718 1,744 1,745 1,763 1,764 1,782 1,783 1,785 1,786 1,788 1,789 1,790 1,793 1,804 1,807 1,809 1,826 1,829 1,831 1,859 1,863 1,867 1,871 1,875 1,877 1,879 1,902 1,904 1,909 1,913 1}
{4 1,29 1,32 1,39 1,43 1,51 1,61 1,82 1,209 1,231 1,277 1,342 1,357 1,361 1,376 1,388 1,391 1,392 1,433 1,463 1,497 1,500 1,528 1,536 1,567 1,609 1,661 1,714 1,798 1,807 1,879 1,883 1,895 1}
{4 1,17 1,20 1,37 1,39 1,51 1,82 1,92 1,97 1,113 1,114 1,120 1,121 1,123 1,143 1,156 1,170 1,182 1,183 1,184 1,218 1,224 1,239 1,244 1,245 1,273 1,277 1,286 1,310 1,313 1,329 1,331 1,345 1,361 1,369 1,391 1,428 1,439 1,469 1,493 1,497 1,509 1,515 1,518 1,521 1,528 1,535 1,536 1,552 1,599 1,657 1,679 1,697 1,725 1,738 1,763 1,782 1,783 1,784 1,786 1,790 1,798 1,807 1,837 1,854 1,856 1,859 1,865 1,870 1,879 1,883 1,895 1,900 1,909 1,910 1,911 1}
{4 1,14 1,39 1,43 1,51 1,55 1,61 1,62 1,70 1,82 1,85 1,87 1,102 1,109 1,114 1,127 1,135 1,152 1,168 1,195 1,196 1,218 1,249 1,252 1,262 1,277 1,286 1,294 1,297 1,302 1,305 1,317 1,321 1,329 1,331 1,332 1,344 1,350 1,357 1,361 1,369 1,378 1,380 1,388 1,391 1,439 1,441 1,478 1,508 1,512 1,515 1,520 1,528 1,536 1,538 1,555 1,583 1,586 1,597 1,605 1,627 1,638 1,657 1,694 1,719 1,741 1,752 1,763 1,772 1,782 1,783 1,786 1,788 1,790 1,796 1,804 1,807 1,842 1,854 1,859 1,863 1,867 1,890 1,907 1,909 1,911 1,913 1}
{4 1,24 1,33 1,35 1,37 1,39 1,41 1,45 1,55 1,82 1,123 1,157 1,186 1,201 1,208 1,303 1,321 1,328 1,331 1,338 1,361 1,365 1,369 1,377 1,388 1,391 1,393 1,409 1,415 1,436 1,470 1,491 1,505 1,506 1,515 1,518 1,528 1,532 1,536 1,538 1,548 1,557 1,604 1,611 1,657 1,693 1,710 1,717 1,763 1,782 1,783 1,785 1,788 1,790 1,796 1,807 1,832 1,849 1,870 1,886 1,895 1,909 1}
{4 1,6 1,24 1,32 1,37 1,39 1,43 1,86 1,222 1,242 1,277 1,280 1,329 1,361 1,365 1,388 1,391 1,420 1,470 1,505 1,536 1,587 1,607 1,610 1,623 1,625 1,642 1,658 1,683 1,697 1,725 1,761 1,778 1,781 1,782 1,783 1,802 1,909 1,911 1}
{4 1,32 1,45 1,51 1,53 1,56 1,181 1,210 1,277 1,300 1,339 1,361 1,369 1,409 1,436 1,528 1,552 1,567 1,572 1,763 1,788 1,790 1,834 1,875 1,913 1}
{4 1,32 1,39 1,43 1,45 1,51 1,56 1,123 1,150 1,204 1,215 1,228 1,270 1,300 1,307 1,308 1,336 1,361 1,369 1,377 1,383 1,449 1,450 1,470 1,495 1,505 1,528 1,536 1,639 1,745 1,781 1,783 1,807 1,854 1,869 1}
{4 1,18 1,21 1,24 1,39 1,45 1,55 1,63 1,70 1,106 1,117 1,177 1,228 1,254 1,266 1,321 1,328 1,329 1,337 1,342 1,361 1,369 1,388 1,391 1,433 1,460 1,496 1,502 1,528 1,536 1,538 1,541 1,552 1,630 1,657 1,679 1,682 1,714 1,715 1,725 1,732 1,782 1,783 1,788 1,790 1,815 1,825 1,854 1,869 1,890 1,904 1,912 1}
{4 1,39 1,45 1,46 1,55 1,61 1,82 1,114 1,152 1,195 1,212 1,235 1,243 1,277 1,286 1,304 1,329 1,353 1,361 1,365 1,369 1,388 1,399 1,528 1,538 1,588 1,594 1,645 1,655 1,656 1,676 1,741 1,745 1,769 1,782 1,783 1,793 1,796 1,814 1,823 1,879 1,890 1,895 1,913 1}
{4 1,16 1,55 1,82 1,90 1,115 1,123 1,125 1,138 1,152 1,157 1,164 1,228 1,231 1,249 1,260 1,265 1,275 1,369 1,370 1,388 1,391 1,464 1,494 1,515 1,528 1,536 1,657 1,660 1,745 1,749 1,751 1,752 1,779 1,782 1,783 1,786 1,788 1,791 1,807 1,858 1,894 1,909 1}
{4 1,21 1,24 1,29 1,51 1,55 1,56 1,61 1,85 1,114 1,115 1,117 1,174 1,208 1,218 1,228 1,244 1,245 1,264 1,277 1,305 1,328 1,329 1,337 1,342 1,343 1,361 1,365 1,369 1,384 1,388 1,391 1,392 1,451 1,460 1,466 1,478 1,516 1,521 1,528 1,538 1,541 1,597 1,603 1,623 1,625 1,643 1,657 1,712 1,723 1,732 1,745 1,752 1,763 1,782 1,783 1,785 1,796 1,807 1,815 1,825 1,832 1,835 1,863 1,872 1,880 1,890 1,909 1,912 1}
{12 1,43 1,83 1,114 1,173 1,305 1,328 1,332 1,361 1,369 1,388 1,391 1,417 1,426 1,433 1,482 1,491 1,505 1,513 1,518 1,551 1,552 1,583 1,657 1,724 1,782 1,783 1,793 1,807 1,822 1,854 1,859 1,865 1,874 1,883 1,913 1}
{4 1,6 1,7 1,15 1,26 1,29 1,31 1,32 1,37 1,39 1,44 1,45 1,46 1,51 1,54 1,55 1,56 1,61 1,65 1,82 1,83 1,86 1,100 1,108 1,114 1,115 1,117 1,121 1,123 1,140 1,144 1,152 1,153 1,169 1,181 1,194 1,197 1,207 1,229 1,231 1,239 1,248 1,253 1,264 1,275 1,276 1,277 1,286 1,300 1,301 1,305 1,311 1,328 1,329 1,339 1,342 1,361 1,368 1,369 1,375 1,386 1,387 1,388 1,390 1,391 1,392 1,399 1,402 1,409 1,410 1,424 1,430 1,431 1,433 1,442 1,450 1,453 1,456 1,463 1,469 1,493 1,494 1,495 1,496 1,501 1,515 1,517 1,518 1,528 1,529 1,535 1,536 1,538 1,539 1,541 1,545 1,552 1,554 1,558 1,567 1,591 1,595 1,616 1,627 1,629 1,638 1,645 1,657 1,666 1,673 1,674 1,682 1,703 1,704 1,707 1,709 1,714 1,723 1,752 1,755 1,758 1,760 1,761 1,776 1,782 1,783 1,784 1,786 1,788 1,790 1,791 1,797 1,800 1,802 1,803 1,805 1,807 1,812 1,824 1,834 1,836 1,837 1,840 1,846 1,851 1,854 1,875 1,879 1,883 1,890 1,895 1,907 1,909 1,911 1}
{4 1,39 1,43 1,82 1,184 1,211 1,228 1,249 1,271 1,273 1,337 1,361 1,391 1,399 1,451 1,508 1,515 1,528 1,630 1,679 1,732 1,777 1,782 1,783 1,788 1,807 1,815 1,852 1,869 1,879 1,900 1,912 1}
{29 1,45 1,51 1,55 1,117 1,123 1,173 1,195 1,228 1,230 1,277 1,286 1,303 1,369 1,388 1,399 1,433 1,457 1,470 1,479 1,491 1,528 1,536 1,541 1,555 1,685 1,716 1,781 1,783 1,790 1,807 1,809 1,875 1,913 1}
{4 1,6 1,7 1,15 1,26 1,29 1,37 1,39 1,45 1,46 1,51 1,55 1,56 1,61 1,65 1,67 1,82 1,85 1,86 1,100 1,108 1,114 1,115 1,117 1,123 1,135 1,140 1,144 1,152 1,153 1,194 1,197 1,199 1,201 1,204 1,207 1,210 1,221 1,229 1,231 1,248 1,264 1,275 1,276 1,277 1,286 1,301 1,305 1,324 1,327 1,328 1,329 1,338 1,339 1,342 1,357 1,360 1,361 1,364 1,368 1,369 1,375 1,387 1,388 1,390 1,391 1,392 1,399 1,402 1,409 1,410 1,430 1,433 1,442 1,450 1,456 1,463 1,467 1,468 1,469 1,471 1,493 1,494 1,495 1,500 1,515 1,518 1,520 1,524 1,528 1,536 1,541 1,548 1,552 1,558 1,567 1,568 1,591 1,595 1,625 1,627 1,629 1,631 1,645 1,657 1,667 1,673 1,682 1,696 1,704 1,707 1,709 1,714 1,715 1,723 1,727 1,745 1,748 1,752 1,758 1,761 1,763 1,779 1,782 1,783 1,784 1,788 1,790 1,792 1,796 1,807 1,812 1,834 1,836 1,838 1,840 1,846 1,851 1,859 1,872 1,875 1,879 1,883 1,890 1,895 1,898 1,907 1,909 1,911 1}
{15 1,18 1,21 1,29 1,39 1,55 1,61 1,106 1,228 1,235 1,299 1,313 1,321 1,328 1,337 1,361 1,369 1,439 1,497 1,502 1,528 1,536 1,537 1,714 1,725 1,783 1,788 1,790 1,815 1,854 1,869 1,875 1,878 1,883 1,891 1,904 1,912 1}
{4 1,18 1,29 1,35 1,37 1,43 1,45 1,55 1,56 1,76 1,82 1,88 1,101 1,123 1,168 1,179 1,181 1,228 1,233 1,270 1,277 1,286 1,317 1,321 1,329 1,361 1,369 1,377 1,388 1,407 1,444 1,453 1,455 1,467 1,470 1,483 1,491 1,497 1,509 1,528 1,536 1,538 1,541 1,549 1,560 1,561 1,578 1,593 1,633 1,657 1,660 1,677 1,680 1,714 1,782 1,783 1,796 1,807 1,823 1,854 1,867 1,869 1,873 1,895 1,904 1,909 1,913 1}
{4 1,6 1,14 1,29 1,37 1,39 1,43 1,44 1,51 1,55 1,56 1,68 1,82 1,115 1,123 1,130 1,132 1,168 1,170 1,182 1,183 1,185 1,193 1,196 1,205 1,210 1,211 1,215 1,228 1,237 1,244 1,277 1,280 1,308 1,328 1,329 1,332 1,361 1,365 1,369 1,388 1,391 1,409 1,428 1,453 1,463 1,468 1,470 1,491 1,497 1,509 1,515 1,518 1,528 1,536 1,546 1,548 1,552 1,603 1,604 1,618 1,620 1,626 1,657 1,659 1,669 1,716 1,717 1,763 1,765 1,766 1,782 1,783 1,796 1,805 1,807 1,809 1,840 1,846 1,854 1,873 1,875 1,883 1,892 1,909 1,911 1}
{4 1,6 1,11 1,12 1,24 1,25 1,29 1,37 1,39 1,43 1,51 1,55 1,56 1,57 1,61 1,82 1,85 1,91 1,92 1,96 1,97 1,114 1,115 1,121 1,123 1,126 1,133 1,136 1,137 1,154 1,158 1,167 1,168 1,174 1,176 1,183 1,195 1,204 1,207 1,208 1,209 1,210 1,213 1,228 1,233 1,243 1,245 1,247 1,252 1,253 1,260 1,270 1,271 1,273 1,277 1,281 1,285 1,286 1,300 1,305 1,307 1,311 1,312 1,322 1,328 1,329 1,335 1,344 1,354 1,357 1,361 1,365 1,368 1,369 1,371 1,372 1,382 1,387 1,388 1,389 1,391 1,402 1,409 1,415 1,416 1,433 1,435 1,437 1,453 1,454 1,463 1,468 1,481 1,491 1,493 1,495 1,497 1,501 1,508 1,510 1,515 1,516 1,518 1,520 1,521 1,523 1,524 1,528 1,536 1,538 1,539 1,541 1,548 1,551 1,552 1,559 1,567 1,580 1,588 1,595 1,598 1,603 1,604 1,613 1,622 1,657 1,659 1,663 1,668 1,679 1,691 1,695 1,696 1,697 1,702 1,703 1,704 1,709 1,714 1,715 1,719 1,721 1,725 1,743 1,747 1,752 1,754 1,755 1,763 1,775 1,782 1,783 1,784 1,786 1,788 1,790 1,791 1,796 1,804 1,807 1,810 1,820 1,833 1,834 1,835 1,841 1,851 1,854 1,863 1,865 1,867 1,869 1,870 1,873 1,875 1,877 1,878 1,879 1,883 1,890 1,891 1,895 1,896 1,898 1,903 1,909 1,911 1}
{4 1,6 1,14 1,29 1,32 1,39 1,55 1,56 1,61 1,114 1,115 1,195 1,203 1,228 1,280 1,286 1,295 1,305 1,335 1,354 1,357 1,361 1,369 1,388 1,391 1,397 1,417 1,440 1,448 1,453 1,463 1,495 1,497 1,515 1,518 1,528 1,535 1,536 1,552 1,555 1,558 1,572 1,628 1,638 1,657 1,676 1,681 1,687 1,704 1,716 1,740 1,767 1,769 1,782 1,783 1,784 1,786 1,790 1,793 1,796 1,804 1,807 1,809 1,813 1,834 1,865 1,883 1,887 1,913 1}
{4 1,6 1,24 1,31 1,37 1,39 1,44 1,51 1,56 1,61 1,82 1,83 1,100 1,114 1,121 1,123 1,144 1,152 1,153 1,169 1,210 1,239 1,253 1,277 1,300 1,305 1,311 1,320 1,328 1,329 1,339 1,361 1,365 1,369 1,388 1,390 1,391 1,402 1,409 1,431 1,433 1,453 1,468 1,470 1,494 1,497 1,501 1,515 1,518 1,528 1,535 1,536 1,540 1,548 1,554 1,599 1,627 1,638 1,646 1,649 1,657 1,666 1,674 1,703 1,752 1,760 1,763 1,782 1,783 1,786 1,788 1,790 1,791 1,798 1,805 1,807 1,828 1,834 1,837 1,854 1,867 1,868 1}
{4 1,29 1,37 1,39 1,51 1,56 1,59 1,85 1,114 1,225 1,254 1,277 1,286 1,305 1,306 1,321 1,328 1,345 1,357 1,361 1,365 1,369 1,388 1,391 1,402 1,433 1,448 1,452 1,454 1,464 1,497 1,500 1,504 1,516 1,518 1,533 1,535 1,536 1,538 1,541 1,587 1,630 1,657 1,709 1,716 1,722 1,725 1,772 1,782 1,783 1,793 1,807 1,846 1,854 1,883 1,889 1,909 1}
{4 1,22 1,45 1,55 1,56 1,83 1,114 1,131 1,152 1,207 1,222 1,228 1,277 1,282 1,329 1,332 1,361 1,369 1,409 1,436 1,468 1,477 1,482 1,536 1,552 1,565 1,576 1,591 1,651 1,677 1,703 1,709 1,745 1,782 1,783 1,790 1,793 1,796 1,807 1,854 1,865 1,869 1,875 1,880 1,883 1,913 1}
{4 1,6 1,19 1,24 1,29 1,31 1,39 1,43 1,51 1,55 1,56 1,57 1,70 1,115 1,128 1,135 1,192 1,207 1,228 1,239 1,243 1,247 1,248 1,250 1,277 1,286 1,324 1,329 1,332 1,338 1,358 1,361 1,365 1,368 1,369 1,388 1,391 1,409 1,410 1,415 1,433 1,457 1,459 1,463 1,473 1,478 1,493 1,510 1,518 1,528 1,536 1,538 1,548 1,551 1,560 1,561 1,567 1,591 1,592 1,603 1,604 1,642 1,657 1,660 1,671 1,709 1,714 1,715 1,729 1,748 1,749 1,752 1,754 1,782 1,783 1,784 1,786 1,789 1,792 1,793 1,796 1,807 1,812 1,818 1,823 1,837 1,845 1,859 1,872 1,875 1,883 1,895 1,899 1}
{4 1,6 1,21 1,24 1,37 1,39 1,51 1,56 1,61 1,65 1,82 1,93 1,95 1,106 1,115 1,123 1,184 1,210 1,214 1,232 1,270 1,271 1,277 1,278 1,286 1,314 1,328 1,361 1,369 1,374 1,377 1,388 1,391 1,421 1,457 1,462 1,480 1,487 1,504 1,506 1,511 1,515 1,518 1,528 1,536 1,539 1,541 1,548 1,593 1,596 1,607 1,612 1,652 1,653 1,657 1,672 1,677 1,725 1,735 1,748 1,772 1,783 1,796 1,800 1,801 1,802 1,807 1,823 1,836 1,837 1,854 1,858 1,863 1,867 1,872 1,875 1,883 1,895 1,900 1}
{4 1,6 1,39 1,51 1,55 1,56 1,61 1,71 1,91 1,114 1,120 1,123 1,204 1,210 1,228 1,235 1,262 1,277 1,300 1,308 1,319 1,329 1,336 1,344 1,361 1,369 1,391 1,402 1,433 1,471 1,509 1,528 1,538 1,541 1,552 1,567 1,600 1,630 1,636 1,696 1,740 1,741 1,746 1,750 1,763 1,767 1,769 1,782 1,783 1,786 1,789 1,790 1,793 1,794 1,796 1,807 1,834 1,854 1,877 1,883 1,895 1,901 1,908 1,909 1,913 1}
{39 1,51 1,93 1,114 1,198 1,388 1,470 1,701 1,714 1,783 1,788 1,790 1,807 1}
{4 1,13 1,24 1,29 1,39 1,41 1,56 1,57 1,61 1,70 1,82 1,95 1,104 1,106 1,115 1,117 1,123 1,140 1,161 1,178 1,181 1,204 1,210 1,222 1,277 1,284 1,286 1,293 1,300 1,305 1,312 1,329 1,365 1,369 1,377 1,388 1,390 1,391 1,411 1,440 1,448 1,452 1,455 1,463 1,490 1,502 1,504 1,516 1,518 1,521 1,523 1,528 1,531 1,536 1,541 1,567 1,573 1,587 1,588 1,625 1,633 1,672 1,682 1,683 1,702 1,709 1,714 1,725 1,763 1,780 1,783 1,785 1,796 1,807 1,825 1,852 1,854 1,875 1,879 1,883 1,890 1,895 1,909 1,911 1}
{4 1,51 1,55 1,76 1,98 1,114 1,164 1,182 1,195 1,262 1,277 1,326 1,339 1,361 1,369 1,391 1,404 1,528 1,536 1,547 1,548 1,552 1,572 1,643 1,657 1,679 1,709 1,717 1,782 1,783 1,793 1,807 1,821 1,835 1,859 1,880 1,913 1}
{4 1,11 1,28 1,32 1,43 1,61 1,70 1,82 1,114 1,195 1,209 1,215 1,242 1,286 1,332 1,361 1,369 1,377 1,388 1,409 1,440 1,497 1,505 1,528 1,536 1,538 1,539 1,558 1,570 1,587 1,642 1,746 1,751 1,776 1,782 1,783 1,796 1,854 1,875 1,879 1}
{4 1,31 1,39 1,51 1,52 1,56 1,61 1,115 1,123 1,128 1,204 1,290 1,308 1,326 1,329 1,350 1,361 1,365 1,369 1,388 1,417 1,441 1,461 1,478 1,491 1,528 1,541 1,616 1,630 1,714 1,725 1,776 1,783 1,785 1,788 1,790 1,793 1,796 1,801 1,804 1,807 1,823 1,849 1,867 1,883 1,909 1,911 1}
{4 1,6 1,29 1,37 1,39 1,45 1,55 1,56 1,61 1,65 1,75 1,78 1,82 1,83 1,86 1,87 1,106 1,110 1,114 1,169 1,182 1,187 1,196 1,204 1,207 1,210 1,218 1,228 1,235 1,243 1,277 1,286 1,294 1,297 1,300 1,313 1,317 1,318 1,321 1,328 1,329 1,332 1,347 1,349 1,357 1,369 1,378 1,388 1,398 1,417 1,419 1,426 1,451 1,460 1,462 1,464 1,467 1,493 1,497 1,515 1,528 1,529 1,536 1,538 1,539 1,541 1,552 1,553 1,577 1,583 1,597 1,647 1,657 1,659 1,679 1,718 1,739 1,763 1,769 1,782 1,783 1,788 1,796 1,799 1,807 1,823 1,834 1,854 1,865 1,867 1,875 1,879 1,883 1,895 1,913 1}
{4 1,61 1,82 1,91 1,124 1,178 1,201 1,277 1,361 1,392 1,400 1,409 1,483 1,501 1,515 1,528 1,623 1,632 1,633 1,722 1,780 1,783 1,796 1,807 1,845 1,854 1,883 1,895 1}
{4 1,39 1,51 1,63 1,114 1,161 1,277 1,308 1,361 1,363 1,388 1,391 1,427 1,528 1,541 1,599 1,691 1,756 1,788 1,794 1,807 1,828 1,834 1,848 1,849 1,870 1,909 1}
{4 1,16 1,39 1,72 1,73 1,82 1,114 1,115 1,196 1,228 1,277 1,286 1,294 1,310 1,332 1,345 1,347 1,354 1,361 1,369 1,388 1,417 1,433 1,470 1,479 1,512 1,513 1,520 1,528 1,541 1,548 1,574 1,583 1,587 1,657 1,716 1,763 1,775 1,782 1,783 1,788 1,790 1,793 1,796 1,807 1,813 1,834 1,866 1,883 1,900 1,913 1}
{4 1,6 1,14 1,21 1,30 1,37 1,39 1,45 1,51 1,55 1,56 1,61 1,71 1,82 1,83 1,88 1,91 1,114 1,115 1,122 1,123 1,128 1,134 1,135 1,152 1,160 1,162 1,168 1,170 1,171 1,177 1,182 1,185 1,189 1,204 1,209 1,210 1,211 1,228 1,239 1,250 1,254 1,273 1,277 1,280 1,296 1,304 1,321 1,328 1,329 1,332 1,333 1,344 1,345 1,346 1,354 1,361 1,365 1,366 1,369 1,383 1,387 1,388 1,391 1,409 1,411 1,431 1,433 1,453 1,463 1,464 1,468 1,471 1,493 1,495 1,497 1,509 1,518 1,528 1,532 1,538 1,539 1,541 1,548 1,552 1,567 1,592 1,600 1,603 1,612 1,617 1,618 1,623 1,627 1,630 1,631 1,644 1,645 1,647 1,651 1,657 1,662 1,672 1,689 1,695 1,709 1,714 1,716 1,752 1,779 1,782 1,783 1,784 1,787 1,788 1,793 1,794 1,796 1,804 1,807 1,812 1,831 1,849 1,854 1,859 1,863 1,867 1,870 1,877 1,883 1,895 1,904 1,906 1,909 1}
{4 1,29 1,51 1,61 1,105 1,115 1,120 1,170 1,171 1,218 1,228 1,234 1,277 1,290 1,304 1,329 1,344 1,353 1,365 1,369 1,388 1,429 1,444 1,451 1,466 1,470 1,509 1,527 1,528 1,538 1,541 1,551 1,587 1,593 1,609 1,704 1,737 1,774 1,779 1,782 1,783 1,807 1,823 1,824 1,853 1,859 1,909 1}
{4 1,11 1,24 1,29 1,37 1,39 1,43 1,51 1,55 1,61 1,75 1,82 1,85 1,101 1,117 1,123 1,153 1,160 1,169 1,171 1,180 1,181 1,228 1,238 1,264 1,265 1,277 1,300 1,308 1,328 1,329 1,336 1,344 1,359 1,369 1,388 1,391 1,423 1,453 1,469 1,505 1,510 1,525 1,528 1,536 1,541 1,557 1,577 1,578 1,624 1,647 1,656 1,657 1,661 1,672 1,695 1,709 1,714 1,763 1,782 1,783 1,785 1,790 1,796 1,799 1,807 1,851 1,859 1,861 1,867 1,881 1,903 1,909 1,913 1}
{4 1,13 1,24 1,29 1,37 1,39 1,51 1,56 1,61 1,65 1,82 1,93 1,106 1,113 1,115 1,158 1,162 1,182 1,183 1,192 1,193 1,194 1,204 1,222 1,223 1,235 1,238 1,253 1,265 1,268 1,272 1,277 1,289 1,290 1,291 1,305 1,329 1,346 1,357 1,358 1,369 1,372 1,377 1,382 1,388 1,391 1,392 1,395 1,428 1,441 1,455 1,456 1,461 1,462 1,485 1,491 1,509 1,518 1,519 1,523 1,528 1,536 1,538 1,541 1,560 1,568 1,573 1,578 1,579 1,587 1,589 1,607 1,611 1,622 1,642 1,655 1,672 1,674 1,691 1,694 1,695 1,742 1,745 1,749 1,772 1,776 1,782 1,783 1,784 1,788 1,790 1,796 1,801 1,807 1,817 1,823 1,830 1,831 1,835 1,860 1,863 1,879 1,883 1,903 1}
{4 1,39 1,56 1,82 1,85 1,112 1,115 1,199 1,280 1,286 1,329 1,361 1,383 1,391 1,420 1,441 1,470 1,528 1,536 1,538 1,549 1,599 1,616 1,721 1,752 1,782 1,783 1,807 1,849 1,895 1}
{4 1,5 1,6 1,15 1,16 1,24 1,28 1,30 1,31 1,35 1,39 1,43 1,44 1,46 1,51 1,54 1,55 1,56 1,61 1,76 1,81 1,82 1,83 1,85 1,91 1,92 1,93 1,94 1,104 1,114 1,116 1,123 1,168 1,187 1,188 1,196 1,204 1,208 1,211 1,224 1,228 1,232 1,233 1,240 1,243 1,253 1,264 1,267 1,268 1,270 1,271 1,277 1,285 1,286 1,300 1,301 1,303 1,304 1,305 1,307 1,308 1,310 1,313 1,317 1,318 1,321 1,322 1,323 1,325 1,328 1,329 1,330 1,332 1,335 1,336 1,339 1,342 1,344 1,345 1,347 1,348 1,350 1,354 1,361 1,365 1,369 1,386 1,388 1,391 1,397 1,402 1,404 1,405 1,409 1,417 1,418 1,423 1,425 1,428 1,431 1,433 1,439 1,442 1,443 1,444 1,445 1,449 1,453 1,454 1,455 1,456 1,460 1,469 1,476 1,477 1,479 1,491 1,492 1,493 1,495 1,508 1,518 1,521 1,524 1,525 1,528 1,529 1,530 1,536 1,537 1,538 1,539 1,541 1,545 1,552 1,553 1,559 1,562 1,565 1,574 1,576 1,577 1,583 1,591 1,599 1,600 1,611 1,619 1,624 1,629 1,630 1,638 1,647 1,657 1,659 1,662 1,676 1,677 1,679 1,681 1,682 1,695 1,699 1,703 1,709 1,713 1,714 1,716 1,719 1,733 1,738 1,739 1,744 1,745 1,746 1,755 1,763 1,764 1,769 1,779 1,782 1,783 1,786 1,790 1,791 1,793 1,795 1,796 1,798 1,799 1,800 1,801 1,802 1,807 1,812 1,813 1,816 1,817 1,828 1,834 1,846 1,854 1,858 1,859 1,863 1,865 1,867 1,875 1,880 1,882 1,883 1,887 1,894 1,895 1,896 1,903 1,904 1,909 1,911 1,913 1}
{4 1,6 1,39 1,51 1,56 1,82 1,369 1,388 1,390 1,391 1,393 1,468 1,509 1,528 1,548 1,657 1,765 1,766 1,807 1,818 1,852 1,909 1}
{4 1,5 1,39 1,55 1,61 1,75 1,78 1,82 1,87 1,114 1,117 1,123 1,128 1,135 1,156 1,199 1,243 1,277 1,280 1,286 1,296 1,297 1,305 1,308 1,329 1,361 1,365 1,369 1,375 1,386 1,388 1,391 1,402 1,425 1,430 1,434 1,437 1,452 1,457 1,480 1,481 1,488 1,490 1,491 1,493 1,512 1,518 1,536 1,539 1,541 1,570 1,592 1,595 1,601 1,614 1,615 1,623 1,625 1,627 1,629 1,631 1,647 1,657 1,668 1,673 1,691 1,695 1,702 1,703 1,714 1,715 1,725 1,762 1,779 1,782 1,783 1,790 1,793 1,796 1,798 1,807 1,836 1,846 1,854 1,858 1,859 1,867 1,869 1,877 1,879 1,883 1,895 1,903 1,904 1,909 1}
{4 1,37 1,39 1,55 1,76 1,82 1,91 1,110 1,123 1,228 1,243 1,297 1,318 1,328 1,332 1,361 1,365 1,369 1,388 1,391 1,393 1,398 1,433 1,439 1,458 1,462 1,491 1,508 1,512 1,515 1,528 1,538 1,619 1,657 1,682 1,746 1,783 1,807 1,832 1,846 1,849 1,858 1,861 1,913 1}
{4 1,39 1,43 1,55 1,56 1,74 1,82 1,94 1,114 1,118 1,135 1,139 1,171 1,201 1,204 1,209 1,217 1,228 1,243 1,277 1,284 1,289 1,298 1,309 1,331 1,357 1,360 1,361 1,365 1,369 1,381 1,383 1,388 1,391 1,402 1,409 1,441 1,454 1,457 1,493 1,499 1,503 1,509 1,518 1,528 1,535 1,551 1,552 1,567 1,578 1,601 1,657 1,681 1,692 1,695 1,706 1,714 1,757 1,782 1,783 1,785 1,793 1,796 1,798 1,807 1,812 1,823 1,824 1,842 1,859 1,879 1,883 1,884 1,885 1,887 1,904 1}
{4 1,21 1,23 1,39 1,56 1,70 1,83 1,204 1,211 1,228 1,277 1,286 1,304 1,308 1,321 1,329 1,335 1,342 1,357 1,361 1,388 1,397 1,402 1,417 1,426 1,449 1,453 1,470 1,477 1,486 1,497 1,518 1,522 1,528 1,536 1,539 1,601 1,615 1,631 1,643 1,752 1,782 1,783 1,807 1,865 1,883 1,909 1,911 1}
{4 1,39 1,41 1,51 1,54 1,55 1,56 1,82 1,87 1,106 1,114 1,116 1,187 1,188 1,204 1,207 1,228 1,243 1,245 1,277 1,294 1,304 1,318 1,323 1,329 1,347 1,357 1,361 1,365 1,368 1,369 1,388 1,402 1,463 1,478 1,495 1,510 1,515 1,518 1,528 1,530 1,536 1,548 1,559 1,575 1,600 1,629 1,650 1,657 1,659 1,708 1,763 1,779 1,782 1,783 1,784 1,790 1,793 1,807 1,863 1,883 1,896 1,903 1,904 1,909 1,913 1}
{4 1,6 1,14 1,17 1,24 1,29 1,32 1,37 1,39 1,41 1,46 1,49 1,55 1,61 1,67 1,86 1,114 1,122 1,182 1,195 1,198 1,204 1,208 1,232 1,243 1,245 1,271 1,275 1,276 1,286 1,289 1,301 1,307 1,308 1,311 1,315 1,321 1,324 1,325 1,328 1,329 1,331 1,332 1,335 1,338 1,339 1,346 1,354 1,357 1,361 1,365 1,369 1,388 1,391 1,402 1,407 1,417 1,419 1,433 1,454 1,484 1,497 1,501 1,508 1,512 1,513 1,515 1,520 1,528 1,533 1,535 1,536 1,538 1,548 1,552 1,554 1,568 1,594 1,640 1,657 1,660 1,669 1,679 1,693 1,699 1,701 1,703 1,709 1,715 1,716 1,754 1,763 1,778 1,782 1,783 1,788 1,793 1,796 1,798 1,807 1,836 1,849 1,853 1,854 1,859 1,860 1,861 1,863 1,864 1,865 1,867 1,869 1,873 1,875 1,883 1,885 1,887 1,903 1}
{4 1,6 1,28 1,29 1,32 1,37 1,43 1,51 1,52 1,55 1,56 1,77 1,82 1,85 1,92 1,114 1,146 1,149 1,168 1,171 1,177 1,181 1,204 1,228 1,249 1,252 1,277 1,307 1,317 1,328 1,329 1,361 1,365 1,369 1,388 1,402 1,411 1,420 1,433 1,469 1,470 1,501 1,515 1,518 1,528 1,536 1,541 1,603 1,616 1,629 1,630 1,667 1,668 1,695 1,716 1,719 1,761 1,782 1,783 1,788 1,790 1,796 1,807 1,854 1,859 1,863 1,865 1,867 1,870 1,873 1,875 1,888 1,895 1,906 1}
{4 1,39 1,152 1,369 1,412 1,457 1,476 1,498 1,507 1,515 1,518 1,528 1,552 1,555 1,657 1,704 1,769 1,782 1,783 1,887 1,913 1}
{4 1,24 1,29 1,39 1,51 1,56 1,82 1,85 1,86 1,107 1,114 1,116 1,152 1,274 1,286 1,299 1,306 1,329 1,339 1,361 1,365 1,388 1,433 1,436 1,455 1,463 1,470 1,478 1,511 1,512 1,536 1,550 1,587 1,638 1,703 1,746 1,753 1,783 1,789 1,796 1,807 1,825 1,879 1,895 1,909 1,911 1}
{4 1,14 1,15 1,29 1,39 1,45 1,51 1,55 1,56 1,60 1,65 1,70 1,85 1,95 1,99 1,103 1,114 1,115 1,182 1,204 1,207 1,211 1,228 1,231 1,237 1,238 1,242 1,243 1,249 1,261 1,264 1,271 1,277 1,281 1,311 1,317 1,328 1,329 1,341 1,346 1,361 1,365 1,369 1,386 1,389 1,391 1,403 1,409 1,411 1,419 1,420 1,432 1,433 1,438 1,442 1,449 1,460 1,480 1,491 1,495 1,528 1,529 1,535 1,536 1,538 1,559 1,622 1,657 1,666 1,673 1,686 1,699 1,709 1,711 1,714 1,725 1,726 1,731 1,742 1,753 1,763 1,782 1,783 1,784 1,786 1,790 1,791 1,793 1,796 1,807 1,819 1,825 1,834 1,849 1,854 1,865 1,883 1,903 1}
{4 1,39 1,55 1,61 1,76 1,91 1,116 1,196 1,207 1,209 1,210 1,228 1,233 1,247 1,310 1,344 1,361 1,365 1,369 1,391 1,396 1,397 1,409 1,417 1,442 1,470 1,510 1,515 1,572 1,618 1,634 1,650 1,660 1,746 1,763 1,780 1,782 1,783 1,804 1,854 1,883 1,893 1,895 1,898 1,909 1,913 1}
{4 1,6 1,24 1,30 1,37 1,39 1,45 1,51 1,56 1,65 1,82 1,115 1,117 1,123 1,136 1,138 1,151 1,168 1,169 1,182 1,197 1,204 1,227 1,243 1,244 1,270 1,277 1,286 1,289 1,300 1,320 1,322 1,357 1,361 1,363 1,365 1,369 1,388 1,391 1,393 1,409 1,412 1,453 1,463 1,512 1,528 1,537 1,541 1,548 1,551 1,619 1,742 1,752 1,782 1,783 1,784 1,786 1,789 1,790 1,792 1,804 1,807 1,830 1,851 1,854 1,858 1,859 1,866 1,870 1,872 1,879 1,883 1,885 1,895 1,909 1}
{4 1,114 1,123 1,132 1,204 1,277 1,318 1,329 1,345 1,361 1,365 1,369 1,388 1,478 1,500 1,501 1,518 1,521 1,552 1,616 1,647 1,725 1,782 1,788 1,834 1,909 1,911 1}
{4 1,5 1,11 1,22 1,39 1,43 1,45 1,54 1,55 1,56 1,76 1,82 1,83 1,93 1,94 1,106 1,116 1,123 1,136 1,153 1,180 1,182 1,208 1,228 1,251 1,277 1,285 1,295 1,329 1,332 1,345 1,349 1,361 1,369 1,388 1,391 1,399 1,402 1,418 1,433 1,442 1,453 1,456 1,469 1,478 1,491 1,493 1,495 1,514 1,515 1,528 1,538 1,539 1,541 1,548 1,551 1,553 1,561 1,575 1,583 1,585 1,600 1,618 1,631 1,657 1,669 1,676 1,686 1,714 1,719 1,721 1,737 1,745 1,763 1,768 1,773 1,781 1,782 1,783 1,794 1,796 1,807 1,812 1,822 1,825 1,834 1,835 1,854 1,859 1,863 1,865 1,868 1,875 1,883 1,888 1,895 1,898 1,910 1,911 1,913 1}
{4 1,14 1,29 1,37 1,39 1,45 1,49 1,51 1,55 1,59 1,82 1,131 1,196 1,224 1,231 1,232 1,277 1,286 1,329 1,339 1,343 1,357 1,361 1,369 1,382 1,384 1,388 1,391 1,439 1,455 1,497 1,515 1,518 1,528 1,536 1,539 1,541 1,587 1,592 1,593 1,613 1,622 1,642 1,657 1,669 1,671 1,677 1,699 1,739 1,748 1,763 1,782 1,783 1,796 1,800 1,807 1,818 1,823 1,854 1,861 1,867 1,883 1,895 1,909 1,911 1}
{0 1,4 1,7 1,9 1,29 1,32 1,34 1,39 1,56 1,59 1,61 1,77 1,79 1,82 1,85 1,91 1,114 1,115 1,116 1,123 1,152 1,161 1,162 1,178 1,183 1,210 1,222 1,225 1,267 1,274 1,277 1,280 1,285 1,286 1,287 1,292 1,293 1,299 1,300 1,303 1,311 1,320 1,328 1,329 1,342 1,361 1,365 1,366 1,367 1,369 1,388 1,391 1,401 1,402 1,433 1,451 1,453 1,464 1,465 1,470 1,485 1,487 1,491 1,493 1,495 1,497 1,498 1,501 1,502 1,515 1,518 1,528 1,536 1,538 1,539 1,541 1,544 1,609 1,617 1,627 1,657 1,672 1,695 1,725 1,726 1,752 1,763 1,781 1,783 1,788 1,789 1,796 1,798 1,807 1,828 1,832 1,836 1,846 1,848 1,858 1,865 1,879 1,883 1,895 1,909 1,911 1}
{4 1,15 1,28 1,37 1,39 1,51 1,55 1,56 1,82 1,86 1,170 1,171 1,177 1,183 1,223 1,228 1,252 1,271 1,281 1,286 1,295 1,305 1,307 1,308 1,329 1,332 1,345 1,361 1,369 1,386 1,388 1,417 1,433 1,460 1,517 1,528 1,536 1,538 1,539 1,580 1,635 1,643 1,657 1,676 1,679 1,695 1,703 1,709 1,724 1,739 1,773 1,782 1,783 1,791 1,796 1,801 1,807 1,823 1,834 1,837 1,854 1,863 1,867 1,877 1,882 1,883 1,913 1}
{4 1,39 1,82 1,114 1,130 1,157 1,210 1,328 1,331 1,361 1,365 1,369 1,388 1,391 1,402 1,453 1,477 1,478 1,497 1,528 1,536 1,570 1,573 1,608 1,620 1,626 1,630 1,642 1,657 1,763 1,782 1,783 1,807 1,810 1,825 1,831 1,878 1,883 1}
{4 1,41 1,56 1,116 1,171 1,222 1,228 1,258 1,286 1,388 1,455 1,528 1,541 1,777 1,783 1,837 1,847 1,872 1}
{4 1,5 1,24 1,39 1,43 1,45 1,55 1,56 1,76 1,82 1,87 1,91 1,115 1,123 1,153 1,165 1,182 1,228 1,251 1,271 1,277 1,285 1,300 1,332 1,361 1,369 1,388 1,391 1,399 1,402 1,411 1,423 1,456 1,469 1,491 1,495 1,518 1,528 1,539 1,548 1,551 1,553 1,561 1,585 1,600 1,631 1,654 1,657 1,714 1,721 1,763 1,768 1,781 1,783 1,793 1,796 1,807 1,822 1,834 1,835 1,858 1,859 1,865 1,875 1,883 1,888 1,911 1,913 1}
{37 1,39 1,43 1,47 1,51 1,84 1,199 1,207 1,328 1,329 1,369 1,377 1,382 1,388 1,497 1,509 1,518 1,592 1,796 1,802 1,878 1}
{0 1,1 1,4 1,15 1,24 1,29 1,39 1,41 1,44 1,51 1,55 1,56 1,83 1,103 1,114 1,115 1,151 1,182 1,210 1,213 1,225 1,228 1,245 1,270 1,274 1,277 1,288 1,293 1,300 1,305 1,311 1,318 1,319 1,321 1,352 1,356 1,357 1,361 1,363 1,365 1,369 1,371 1,382 1,383 1,386 1,388 1,391 1,402 1,416 1,421 1,433 1,439 1,449 1,452 1,458 1,485 1,490 1,501 1,503 1,525 1,528 1,533 1,536 1,542 1,545 1,548 1,552 1,558 1,591 1,592 1,601 1,602 1,618 1,625 1,630 1,659 1,677 1,679 1,681 1,691 1,695 1,707 1,709 1,717 1,725 1,730 1,749 1,752 1,753 1,761 1,762 1,763 1,782 1,783 1,784 1,789 1,790 1,796 1,801 1,807 1,821 1,826 1,836 1,837 1,854 1,856 1,858 1,859 1,870 1,883 1,885 1,895 1,909 1}
{4 1,5 1,39 1,43 1,45 1,55 1,76 1,82 1,123 1,153 1,182 1,228 1,251 1,277 1,285 1,286 1,306 1,309 1,317 1,361 1,369 1,391 1,399 1,402 1,469 1,491 1,495 1,528 1,548 1,551 1,553 1,561 1,585 1,600 1,631 1,654 1,714 1,721 1,763 1,768 1,781 1,783 1,796 1,807 1,822 1,834 1,835 1,859 1,865 1,883 1,888 1,911 1,913 1}
{4 1,39 1,88 1,248 1,254 1,277 1,434 1,458 1,466 1,493 1,494 1,528 1,538 1,560 1,625 1,626 1,657 1,673 1,782 1,783 1,807 1,867 1,872 1,883 1,885 1,909 1}
{4 1,6 1,14 1,28 1,32 1,37 1,39 1,51 1,53 1,55 1,56 1,82 1,83 1,86 1,114 1,115 1,146 1,149 1,152 1,171 1,177 1,210 1,228 1,252 1,286 1,329 1,361 1,365 1,369 1,388 1,402 1,411 1,420 1,497 1,509 1,515 1,528 1,534 1,541 1,616 1,623 1,629 1,630 1,647 1,679 1,690 1,711 1,719 1,761 1,763 1,775 1,779 1,782 1,783 1,790 1,792 1,796 1,807 1,811 1,859 1,865 1,867 1,888 1,893 1,906 1,907 1,909 1}
{4 1,39 1,61 1,76 1,91 1,116 1,196 1,207 1,209 1,210 1,233 1,247 1,310 1,344 1,361 1,365 1,369 1,391 1,396 1,397 1,409 1,417 1,442 1,470 1,515 1,518 1,528 1,572 1,592 1,603 1,618 1,634 1,650 1,657 1,660 1,745 1,746 1,763 1,773 1,780 1,782 1,783 1,804 1,854 1,856 1,867 1,883 1,893 1,895 1,898 1,909 1,911 1,913 1}
{4 1,6 1,29 1,30 1,32 1,35 1,39 1,43 1,51 1,55 1,56 1,61 1,68 1,82 1,116 1,123 1,128 1,152 1,170 1,182 1,194 1,201 1,205 1,207 1,231 1,247 1,252 1,270 1,277 1,285 1,291 1,305 1,308 1,328 1,361 1,365 1,369 1,371 1,388 1,391 1,402 1,404 1,409 1,425 1,427 1,431 1,433 1,447 1,463 1,478 1,482 1,491 1,493 1,516 1,518 1,521 1,523 1,528 1,532 1,536 1,539 1,541 1,548 1,552 1,564 1,592 1,604 1,617 1,629 1,630 1,635 1,644 1,647 1,657 1,693 1,707 1,709 1,716 1,746 1,751 1,764 1,780 1,782 1,783 1,786 1,788 1,789 1,790 1,792 1,807 1,818 1,834 1,849 1,852 1,854 1,859 1,867 1,872 1,879 1,883 1,886 1,895 1,909 1,911 1}
{4 1,22 1,29 1,39 1,48 1,70 1,82 1,86 1,107 1,115 1,159 1,177 1,178 1,194 1,223 1,271 1,274 1,284 1,286 1,292 1,329 1,361 1,369 1,377 1,388 1,391 1,405 1,468 1,470 1,498 1,502 1,523 1,528 1,536 1,607 1,619 1,637 1,639 1,642 1,725 1,742 1,763 1,771 1,772 1,777 1,783 1,807 1,828 1,830 1,847 1,851 1,900 1}
{4 1,24 1,26 1,39 1,55 1,76 1,82 1,114 1,135 1,152 1,153 1,157 1,168 1,187 1,247 1,248 1,277 1,294 1,307 1,329 1,353 1,361 1,365 1,369 1,388 1,391 1,392 1,402 1,426 1,437 1,463 1,470 1,491 1,495 1,503 1,508 1,515 1,518 1,528 1,536 1,538 1,541 1,549 1,552 1,565 1,577 1,656 1,657 1,667 1,684 1,703 1,777 1,779 1,782 1,783 1,788 1,789 1,792 1,796 1,807 1,820 1,835 1,859 1,865 1,867 1,877 1,879 1,883 1,895 1,907 1,913 1}
{4 1,14 1,18 1,29 1,37 1,39 1,41 1,43 1,46 1,49 1,51 1,56 1,61 1,80 1,88 1,114 1,115 1,122 1,130 1,142 1,152 1,157 1,178 1,204 1,208 1,210 1,222 1,227 1,243 1,244 1,251 1,264 1,267 1,271 1,277 1,286 1,304 1,307 1,311 1,329 1,330 1,332 1,339 1,345 1,357 1,361 1,363 1,365 1,369 1,388 1,391 1,396 1,407 1,409 1,455 1,475 1,501 1,515 1,520 1,528 1,535 1,536 1,541 1,548 1,591 1,631 1,657 1,677 1,682 1,693 1,701 1,709 1,714 1,752 1,763 1,782 1,783 1,788 1,790 1,793 1,796 1,798 1,804 1,807 1,854 1,859 1,863 1,865 1,867 1,869 1,875 1,895 1,903 1,904 1,909 1}
{4 1,24 1,25 1,32 1,38 1,39 1,43 1,51 1,56 1,70 1,82 1,85 1,114 1,120 1,178 1,209 1,210 1,277 1,286 1,299 1,300 1,307 1,328 1,329 1,330 1,336 1,361 1,369 1,388 1,391 1,396 1,400 1,414 1,426 1,441 1,449 1,485 1,501 1,509 1,518 1,528 1,536 1,551 1,552 1,553 1,603 1,609 1,642 1,655 1,658 1,672 1,703 1,714 1,725 1,726 1,755 1,763 1,767 1,769 1,782 1,783 1,788 1,792 1,798 1,802 1,807 1,812 1,821 1,843 1,859 1,877 1,879 1,883 1}
{4 1,16 1,26 1,29 1,31 1,37 1,39 1,49 1,55 1,72 1,76 1,114 1,115 1,127 1,128 1,152 1,271 1,277 1,285 1,295 1,307 1,310 1,317 1,321 1,332 1,339 1,345 1,353 1,361 1,365 1,369 1,386 1,388 1,391 1,392 1,417 1,427 1,438 1,440 1,491 1,497 1,503 1,513 1,515 1,524 1,536 1,541 1,548 1,565 1,591 1,620 1,655 1,657 1,703 1,743 1,779 1,782 1,783 1,787 1,788 1,793 1,796 1,807 1,834 1,836 1,854 1,859 1,863 1,865 1,875 1,879 1,913 1}
{4 1,15 1,24 1,35 1,37 1,51 1,66 1,82 1,88 1,114 1,152 1,167 1,171 1,205 1,210 1,222 1,228 1,229 1,277 1,286 1,298 1,309 1,315 1,329 1,358 1,361 1,369 1,372 1,374 1,388 1,396 1,413 1,416 1,453 1,455 1,493 1,518 1,528 1,538 1,541 1,545 1,553 1,578 1,623 1,630 1,647 1,657 1,695 1,709 1,755 1,758 1,763 1,778 1,782 1,783 1,786 1,788 1,807 1,828 1,867 1,872 1,890 1,895 1}
{4 1,11 1,14 1,29 1,37 1,39 1,46 1,49 1,51 1,55 1,56 1,64 1,82 1,114 1,115 1,123 1,128 1,152 1,154 1,155 1,222 1,264 1,269 1,277 1,286 1,300 1,304 1,357 1,361 1,365 1,369 1,370 1,388 1,391 1,401 1,408 1,456 1,464 1,472 1,475 1,515 1,528 1,542 1,543 1,555 1,612 1,617 1,638 1,657 1,681 1,709 1,752 1,764 1,779 1,781 1,782 1,783 1,786 1,789 1,790 1,796 1,807 1,815 1,828 1,834 1,851 1,854 1,870 1,872 1}
{6 1,22 1,24 1,39 1,51 1,61 1,70 1,82 1,105 1,109 1,114 1,141 1,168 1,171 1,173 1,195 1,210 1,226 1,228 1,286 1,295 1,300 1,332 1,345 1,357 1,361 1,365 1,388 1,391 1,409 1,425 1,439 1,453 1,476 1,497 1,518 1,521 1,528 1,536 1,539 1,548 1,552 1,657 1,709 1,724 1,740 1,743 1,746 1,763 1,769 1,773 1,782 1,783 1,790 1,796 1,804 1,823 1,833 1,834 1,854 1,863 1,869 1,877 1,909 1,911 1,913 1}
{4 1,6 1,39 1,51 1,82 1,114 1,123 1,164 1,177 1,210 1,243 1,266 1,332 1,344 1,361 1,365 1,369 1,388 1,391 1,402 1,457 1,469 1,507 1,528 1,541 1,555 1,615 1,681 1,763 1,764 1,783 1,793 1,807 1,834 1,849 1,870 1,877 1,883 1,909 1,911 1}
{4 1,6 1,7 1,14 1,15 1,16 1,24 1,29 1,33 1,39 1,45 1,51 1,55 1,56 1,61 1,65 1,70 1,85 1,94 1,99 1,114 1,115 1,121 1,126 1,153 1,182 1,195 1,207 1,210 1,211 1,242 1,261 1,264 1,277 1,281 1,300 1,310 1,317 1,321 1,328 1,329 1,346 1,355 1,361 1,365 1,369 1,386 1,391 1,402 1,409 1,411 1,419 1,421 1,432 1,441 1,442 1,454 1,460 1,495 1,497 1,500 1,501 1,508 1,518 1,528 1,529 1,535 1,536 1,538 1,540 1,552 1,559 1,588 1,638 1,657 1,666 1,673 1,686 1,696 1,699 1,709 1,725 1,731 1,763 1,764 1,782 1,783 1,784 1,785 1,786 1,790 1,791 1,793 1,796 1,798 1,800 1,807 1,819 1,834 1,854 1,879 1,883 1,903 1,909 1,911 1}
{4 1,29 1,39 1,45 1,51 1,55 1,56 1,61 1,76 1,82 1,107 1,132 1,150 1,183 1,195 1,213 1,222 1,228 1,235 1,268 1,277 1,286 1,301 1,305 1,310 1,332 1,344 1,345 1,347 1,357 1,361 1,365 1,369 1,386 1,388 1,417 1,439 1,453 1,477 1,500 1,502 1,525 1,528 1,536 1,555 1,574 1,584 1,586 1,696 1,747 1,769 1,782 1,783 1,789 1,790 1,823 1,854 1,867 1,872 1,875 1,910 1,913 1}
{4 1,6 1,15 1,24 1,29 1,32 1,37 1,39 1,43 1,51 1,53 1,54 1,55 1,56 1,61 1,70 1,77 1,82 1,83 1,87 1,88 1,94 1,97 1,103 1,113 1,114 1,115 1,122 1,123 1,144 1,152 1,153 1,170 1,177 1,201 1,204 1,208 1,209 1,210 1,213 1,228 1,235 1,242 1,243 1,250 1,267 1,277 1,279 1,280 1,286 1,292 1,299 1,301 1,303 1,305 1,308 1,321 1,328 1,329 1,333 1,339 1,357 1,360 1,361 1,365 1,368 1,369 1,383 1,386 1,387 1,388 1,389 1,391 1,392 1,402 1,410 1,433 1,434 1,453 1,454 1,457 1,459 1,463 1,468 1,470 1,471 1,474 1,477 1,487 1,491 1,495 1,497 1,509 1,515 1,516 1,518 1,520 1,528 1,529 1,535 1,536 1,537 1,538 1,541 1,545 1,548 1,552 1,553 1,559 1,567 1,569 1,587 1,588 1,601 1,605 1,615 1,627 1,630 1,631 1,642 1,644 1,645 1,657 1,660 1,672 1,673 1,680 1,682 1,684 1,690 1,696 1,709 1,714 1,715 1,716 1,754 1,763 1,767 1,777 1,779 1,782 1,783 1,784 1,785 1,786 1,787 1,788 1,789 1,790 1,792 1,793 1,796 1,798 1,799 1,800 1,807 1,812 1,834 1,838 1,849 1,854 1,858 1,859 1,863 1,867 1,871 1,875 1,879 1,883 1,884 1,887 1,892 1,893 1,895 1,906 1,909 1,911 1}
{4 1,6 1,17 1,39 1,61 1,82 1,96 1,114 1,115 1,166 1,177 1,193 1,199 1,235 1,271 1,277 1,305 1,312 1,361 1,402 1,407 1,416 1,425 1,478 1,490 1,506 1,518 1,528 1,536 1,553 1,570 1,627 1,679 1,714 1,716 1,725 1,767 1,782 1,783 1,786 1,788 1,807 1,821 1,875 1,877 1,883 1,895 1,909 1}
{0 1,1 1,2 1,33 1,39 1,49 1,62 1,73 1,90 1,101 1,105 1,109 1,119 1,141 1,145 1,151 1,173 1,206 1,228 1,277 1,353 1,356 1,369 1,372 1,417 1,423 1,448 1,476 1,502 1,509 1,571 1,572 1,579 1,635 1,636 1,657 1,661 1,724 1,734 1,770 1,815 1,866 1,874 1,887 1,901 1,908 1,913 1}
{4 1,29 1,39 1,41 1,51 1,55 1,82 1,83 1,85 1,87 1,100 1,108 1,114 1,115 1,123 1,124 1,125 1,128 1,152 1,157 1,202 1,204 1,210 1,211 1,212 1,222 1,228 1,232 1,243 1,244 1,260 1,277 1,286 1,328 1,329 1,330 1,333 1,336 1,338 1,357 1,361 1,369 1,378 1,388 1,391 1,402 1,407 1,455 1,470 1,477 1,495 1,497 1,518 1,528 1,534 1,536 1,538 1,539 1,541 1,561 1,567 1,573 1,601 1,603 1,642 1,684 1,693 1,709 1,763 1,782 1,783 1,790 1,796 1,799 1,801 1,802 1,807 1,819 1,875 1,878 1,896 1,904 1,909 1}
{26 1,28 1,37 1,39 1,41 1,61 1,68 1,114 1,115 1,116 1,306 1,329 1,361 1,369 1,379 1,388 1,391 1,402 1,409 1,421 1,509 1,518 1,528 1,538 1,542 1,552 1,580 1,590 1,627 1,646 1,657 1,663 1,703 1,742 1,746 1,782 1,783 1,788 1,796 1,797 1,833 1,836 1,846 1,854 1,877 1,904 1}
{4 1,39 1,55 1,76 1,104 1,121 1,123 1,222 1,228 1,245 1,270 1,361 1,369 1,388 1,391 1,436 1,497 1,528 1,536 1,538 1,600 1,657 1,694 1,709 1,729 1,763 1,765 1,782 1,783 1,786 1,788 1,814 1,909 1,913 1}
{4 1,5 1,7 1,14 1,26 1,29 1,32 1,37 1,39 1,45 1,46 1,51 1,55 1,65 1,85 1,100 1,108 1,114 1,115 1,117 1,123 1,138 1,140 1,164 1,194 1,197 1,228 1,231 1,241 1,264 1,275 1,276 1,277 1,301 1,305 1,328 1,329 1,342 1,354 1,361 1,369 1,375 1,388 1,391 1,392 1,399 1,430 1,442 1,450 1,456 1,463 1,494 1,495 1,496 1,515 1,518 1,528 1,529 1,536 1,541 1,545 1,558 1,560 1,591 1,627 1,629 1,657 1,691 1,704 1,707 1,709 1,723 1,751 1,755 1,761 1,779 1,782 1,783 1,788 1,789 1,790 1,796 1,802 1,807 1,812 1,834 1,851 1,872 1,875 1,879 1,883 1,895 1}
{45 1,82 1,207 1,252 1,328 1,335 1,386 1,388 1,391 1,409 1,528 1,541 1,657 1,807 1,869 1}
{4 1,32 1,39 1,61 1,71 1,82 1,114 1,128 1,134 1,140 1,232 1,277 1,304 1,361 1,369 1,388 1,453 1,510 1,528 1,536 1,541 1,555 1,559 1,572 1,583 1,587 1,781 1,782 1,783 1,793 1,796 1,804 1,805 1,807 1,841 1,865 1,879 1,898 1,913 1}
{4 1,6 1,18 1,26 1,31 1,37 1,39 1,43 1,45 1,51 1,57 1,58 1,70 1,71 1,83 1,100 1,115 1,122 1,128 1,130 1,183 1,195 1,207 1,224 1,245 1,267 1,270 1,271 1,274 1,277 1,285 1,299 1,307 1,314 1,321 1,322 1,328 1,329 1,331 1,332 1,333 1,338 1,361 1,364 1,369 1,371 1,372 1,388 1,391 1,402 1,433 1,470 1,478 1,483 1,489 1,491 1,512 1,515 1,528 1,538 1,541 1,548 1,552 1,604 1,605 1,606 1,633 1,647 1,657 1,660 1,679 1,685 1,691 1,693 1,703 1,714 1,759 1,763 1,765 1,781 1,782 1,783 1,786 1,789 1,800 1,804 1,807 1,810 1,833 1,834 1,849 1,854 1,858 1,861 1,864 1,872 1,875 1,879 1,890 1,895 1,904 1,909 1}
{4 1,5 1,6 1,9 1,10 1,11 1,24 1,26 1,28 1,29 1,37 1,39 1,43 1,45 1,49 1,51 1,52 1,56 1,60 1,61 1,65 1,75 1,77 1,82 1,83 1,87 1,106 1,111 1,112 1,114 1,115 1,120 1,123 1,142 1,143 1,153 1,160 1,164 1,171 1,178 1,181 1,191 1,207 1,209 1,223 1,234 1,238 1,241 1,244 1,245 1,250 1,251 1,252 1,268 1,270 1,271 1,274 1,277 1,286 1,294 1,314 1,320 1,328 1,329 1,331 1,353 1,357 1,360 1,364 1,366 1,367 1,369 1,372 1,377 1,385 1,388 1,390 1,391 1,392 1,407 1,410 1,414 1,416 1,422 1,433 1,438 1,441 1,452 1,454 1,456 1,457 1,460 1,463 1,468 1,472 1,487 1,490 1,493 1,509 1,510 1,511 1,512 1,513 1,518 1,528 1,529 1,536 1,537 1,538 1,539 1,541 1,545 1,548 1,553 1,567 1,580 1,583 1,593 1,596 1,598 1,601 1,607 1,609 1,611 1,612 1,615 1,620 1,621 1,629 1,634 1,645 1,653 1,657 1,672 1,679 1,687 1,690 1,703 1,707 1,711 1,714 1,725 1,731 1,738 1,740 1,751 1,756 1,761 1,762 1,764 1,765 1,766 1,776 1,777 1,782 1,783 1,784 1,786 1,789 1,790 1,796 1,804 1,807 1,821 1,822 1,828 1,834 1,837 1,839 1,840 1,845 1,849 1,858 1,859 1,862 1,863 1,872 1,873 1,875 1,879 1,883 1,884 1,890 1,891 1,893 1}
{4 1,6 1,28 1,39 1,55 1,85 1,107 1,152 1,154 1,177 1,207 1,228 1,277 1,310 1,329 1,344 1,357 1,369 1,388 1,402 1,463 1,464 1,467 1,482 1,528 1,536 1,538 1,539 1,541 1,555 1,571 1,572 1,576 1,598 1,601 1,657 1,696 1,745 1,746 1,782 1,783 1,793 1,807 1,828 1,855 1,859 1,875 1,893 1,913 1}
{4 1,5 1,16 1,24 1,39 1,51 1,56 1,61 1,71 1,79 1,82 1,85 1,114 1,115 1,140 1,194 1,201 1,204 1,238 1,242 1,243 1,250 1,275 1,277 1,284 1,286 1,292 1,318 1,328 1,333 1,334 1,360 1,365 1,369 1,371 1,388 1,391 1,429 1,433 1,441 1,457 1,469 1,496 1,509 1,515 1,518 1,521 1,528 1,536 1,539 1,548 1,551 1,553 1,573 1,591 1,597 1,601 1,612 1,616 1,617 1,625 1,629 1,648 1,652 1,655 1,695 1,697 1,713 1,725 1,739 1,772 1,782 1,783 1,784 1,786 1,790 1,796 1,804 1,807 1,809 1,822 1,824 1,828 1,834 1,840 1,859 1,865 1,867 1,868 1,872 1,879 1,883 1,884 1,890 1,904 1,911 1}
{4 1,6 1,14 1,39 1,45 1,56 1,82 1,114 1,115 1,117 1,177 1,254 1,266 1,273 1,281 1,328 1,329 1,361 1,369 1,388 1,391 1,433 1,441 1,453 1,468 1,496 1,497 1,528 1,536 1,545 1,552 1,553 1,630 1,638 1,657 1,677 1,679 1,682 1,715 1,782 1,783 1,788 1,793 1,807 1,846 1,847 1,854 1,865 1,883 1,884 1}
{4 1,5 1,19 1,24 1,39 1,51 1,55 1,61 1,76 1,82 1,83 1,114 1,123 1,152 1,177 1,204 1,208 1,210 1,223 1,228 1,243 1,251 1,277 1,300 1,305 1,315 1,329 1,361 1,369 1,371 1,382 1,391 1,402 1,404 1,409 1,440 1,453 1,454 1,470 1,478 1,482 1,491 1,493 1,497 1,528 1,538 1,541 1,548 1,552 1,554 1,567 1,569 1,580 1,588 1,612 1,627 1,628 1,630 1,643 1,657 1,680 1,684 1,714 1,739 1,763 1,781 1,782 1,783 1,784 1,785 1,786 1,788 1,790 1,793 1,796 1,804 1,807 1,821 1,823 1,834 1,835 1,846 1,863 1,870 1,876 1,883 1,889 1,896 1,898 1,909 1,911 1,913 1}
{4 1,39 1,56 1,82 1,84 1,114 1,115 1,153 1,181 1,196 1,228 1,277 1,318 1,332 1,344 1,345 1,361 1,369 1,388 1,391 1,424 1,433 1,470 1,477 1,491 1,496 1,518 1,532 1,552 1,567 1,580 1,647 1,657 1,667 1,715 1,721 1,763 1,783 1,796 1,799 1,807 1,812 1,854 1,867 1,909 1}
{4 1,11 1,29 1,37 1,46 1,49 1,55 1,56 1,64 1,82 1,114 1,123 1,128 1,152 1,155 1,222 1,269 1,277 1,286 1,361 1,369 1,388 1,399 1,401 1,408 1,453 1,464 1,475 1,518 1,528 1,543 1,555 1,617 1,681 1,709 1,719 1,752 1,768 1,782 1,783 1,789 1,796 1,807 1,837 1,851 1,854 1,870 1}
{0 1,1 1,2 1,4 1,6 1,14 1,16 1,32 1,37 1,39 1,51 1,55 1,56 1,61 1,65 1,66 1,76 1,90 1,114 1,115 1,123 1,175 1,182 1,204 1,206 1,210 1,211 1,213 1,222 1,226 1,228 1,232 1,243 1,245 1,247 1,262 1,277 1,300 1,328 1,329 1,339 1,361 1,365 1,369 1,386 1,388 1,391 1,402 1,407 1,409 1,418 1,428 1,436 1,453 1,455 1,463 1,470 1,483 1,497 1,510 1,515 1,518 1,528 1,529 1,536 1,537 1,539 1,541 1,548 1,549 1,553 1,567 1,587 1,592 1,595 1,615 1,630 1,638 1,645 1,657 1,679 1,683 1,688 1,689 1,690 1,714 1,750 1,763 1,764 1,779 1,781 1,782 1,783 1,784 1,788 1,796 1,798 1,802 1,804 1,807 1,834 1,836 1,852 1,854 1,858 1,860 1,866 1,875 1,887 1,893 1,909 1,911 1,913 1}
{4 1,6 1,16 1,39 1,55 1,82 1,83 1,92 1,94 1,115 1,123 1,178 1,209 1,224 1,228 1,249 1,277 1,300 1,307 1,329 1,360 1,361 1,365 1,369 1,379 1,388 1,394 1,402 1,415 1,463 1,493 1,510 1,521 1,528 1,529 1,536 1,538 1,541 1,604 1,609 1,617 1,623 1,642 1,657 1,672 1,673 1,680 1,700 1,709 1,730 1,763 1,764 1,779 1,782 1,783 1,784 1,785 1,790 1,793 1,798 1,807 1,837 1,858 1,865 1,867 1,872 1,895 1,909 1}
{4 1,11 1,24 1,29 1,37 1,39 1,41 1,51 1,54 1,55 1,77 1,82 1,114 1,115 1,123 1,183 1,228 1,271 1,273 1,286 1,288 1,337 1,361 1,365 1,369 1,388 1,391 1,415 1,457 1,491 1,497 1,518 1,528 1,542 1,603 1,615 1,638 1,663 1,722 1,723 1,725 1,732 1,779 1,782 1,783 1,796 1,807 1,815 1,851 1,865 1,870 1,878 1,879 1,883 1,895 1,909 1,911 1,912 1}
{4 1,24 1,39 1,51 1,55 1,61 1,83 1,84 1,109 1,123 1,195 1,210 1,228 1,245 1,246 1,294 1,300 1,328 1,329 1,339 1,357 1,361 1,365 1,369 1,388 1,391 1,392 1,407 1,425 1,433 1,440 1,453 1,528 1,539 1,541 1,567 1,601 1,629 1,657 1,709 1,740 1,746 1,763 1,769 1,782 1,783 1,785 1,790 1,796 1,807 1,812 1,833 1,834 1,854 1,857 1,863 1,867 1,869 1,875 1,877 1,909 1,911 1,913 1}
{24 1,39 1,51 1,82 1,204 1,230 1,243 1,277 1,308 1,316 1,321 1,329 1,331 1,361 1,364 1,391 1,399 1,434 1,491 1,518 1,680 1,779 1,782 1,783 1,788 1,807 1,810 1,819 1,836 1,840 1,854 1,904 1,907 1}
{4 1,6 1,7 1,11 1,12 1,19 1,24 1,25 1,29 1,32 1,37 1,39 1,43 1,51 1,55 1,56 1,57 1,61 1,71 1,82 1,85 1,88 1,91 1,92 1,96 1,97 1,114 1,115 1,121 1,123 1,126 1,133 1,136 1,137 1,153 1,154 1,158 1,167 1,168 1,169 1,170 1,174 1,176 1,195 1,198 1,204 1,207 1,208 1,209 1,210 1,211 1,213 1,228 1,233 1,243 1,244 1,245 1,247 1,249 1,252 1,253 1,260 1,270 1,271 1,273 1,277 1,281 1,285 1,286 1,289 1,300 1,305 1,306 1,307 1,311 1,312 1,322 1,324 1,325 1,328 1,329 1,335 1,339 1,342 1,344 1,354 1,357 1,361 1,365 1,368 1,369 1,371 1,372 1,382 1,387 1,388 1,389 1,391 1,397 1,402 1,409 1,416 1,427 1,433 1,435 1,437 1,449 1,453 1,454 1,457 1,463 1,467 1,468 1,469 1,481 1,491 1,493 1,495 1,496 1,501 1,502 1,508 1,510 1,515 1,516 1,518 1,520 1,521 1,523 1,524 1,528 1,533 1,536 1,538 1,539 1,541 1,546 1,547 1,548 1,551 1,552 1,553 1,559 1,567 1,580 1,588 1,592 1,593 1,595 1,598 1,603 1,604 1,605 1,607 1,608 1,609 1,613 1,616 1,622 1,630 1,638 1,657 1,659 1,660 1,663 1,667 1,668 1,679 1,682 1,690 1,691 1,695 1,696 1,697 1,702 1,703 1,704 1,709 1,714 1,715 1,716 1,719 1,721 1,725 1,741 1,743 1,747 1,751 1,752 1,754 1,755 1,763 1,764 1,775 1,779 1,782 1,783 1,784 1,785 1,786 1,788 1,790 1,791 1,792 1,796 1,804 1,807 1,810 1,814 1,819 1,820 1,821 1,822 1,831 1,833 1,834 1,835 1,841 1,851 1,852 1,854 1,858 1,861 1,863 1,865 1,867 1,869 1,870 1,872 1,873 1,874 1,875 1,877 1,879 1,883 1,890 1,891 1,895 1,896 1,898 1,903 1,904 1,909 1,911 1}
{4 1,24 1,39 1,56 1,61 1,70 1,72 1,81 1,82 1,85 1,87 1,91 1,115 1,141 1,168 1,179 1,208 1,262 1,286 1,302 1,321 1,324 1,328 1,332 1,345 1,352 1,361 1,369 1,388 1,391 1,419 1,426 1,431 1,433 1,436 1,453 1,462 1,468 1,491 1,518 1,528 1,536 1,657 1,659 1,703 1,763 1,783 1,796 1,798 1,807 1,809 1,834 1,854 1,909 1,911 1,913 1}
{4 1,6 1,24 1,28 1,32 1,39 1,43 1,45 1,61 1,71 1,82 1,114 1,115 1,121 1,123 1,182 1,183 1,204 1,210 1,211 1,245 1,277 1,280 1,286 1,300 1,305 1,310 1,329 1,336 1,339 1,355 1,357 1,361 1,365 1,369 1,376 1,388 1,391 1,402 1,407 1,409 1,425 1,470 1,473 1,496 1,497 1,505 1,521 1,528 1,536 1,539 1,541 1,552 1,567 1,587 1,591 1,592 1,594 1,601 1,629 1,647 1,657 1,714 1,718 1,763 1,764 1,766 1,775 1,783 1,793 1,796 1,807 1,818 1,823 1,846 1,861 1,872 1,911 1}
{4 1,6 1,9 1,24 1,51 1,55 1,56 1,61 1,83 1,87 1,113 1,114 1,150 1,152 1,200 1,209 1,238 1,245 1,246 1,310 1,357 1,362 1,369 1,388 1,391 1,416 1,433 1,470 1,506 1,515 1,518 1,520 1,528 1,562 1,609 1,623 1,625 1,629 1,657 1,672 1,681 1,686 1,709 1,782 1,786 1,788 1,790 1,807 1,827 1,867 1,877 1}
{31 1,39 1,123 1,177 1,228 1,243 1,295 1,357 1,361 1,365 1,386 1,391 1,404 1,424 1,433 1,477 1,536 1,657 1,675 1,764 1,779 1,793 1,807 1,836 1,840 1,869 1,870 1,909 1,913 1}
{4 1,39 1,51 1,54 1,82 1,83 1,85 1,90 1,113 1,114 1,115 1,128 1,184 1,195 1,202 1,210 1,228 1,229 1,232 1,243 1,245 1,253 1,277 1,286 1,308 1,326 1,328 1,329 1,343 1,357 1,361 1,365 1,369 1,386 1,388 1,391 1,399 1,457 1,473 1,474 1,493 1,497 1,509 1,515 1,518 1,528 1,539 1,541 1,548 1,552 1,604 1,618 1,622 1,656 1,657 1,691 1,714 1,715 1,763 1,782 1,783 1,788 1,790 1,804 1,807 1,834 1,859 1,863 1,872 1,875 1,877 1,883 1,895 1,909 1,911 1}
{9 1,51 1,113 1,150 1,152 1,178 1,200 1,203 1,210 1,232 1,245 1,283 1,310 1,329 1,361 1,362 1,369 1,388 1,402 1,433 1,506 1,518 1,541 1,562 1,642 1,657 1,763 1,783 1,807 1,827 1,859 1,890 1,909 1}
{4 1,14 1,39 1,55 1,61 1,72 1,81 1,85 1,196 1,277 1,345 1,361 1,369 1,391 1,409 1,417 1,454 1,536 1,593 1,677 1,695 1,719 1,741 1,763 1,783 1,807 1,833 1,913 1}
{4 1,14 1,17 1,24 1,28 1,29 1,32 1,37 1,39 1,43 1,45 1,51 1,54 1,56 1,61 1,82 1,84 1,85 1,86 1,87 1,88 1,97 1,108 1,114 1,115 1,121 1,129 1,132 1,134 1,135 1,152 1,153 1,164 1,168 1,169 1,170 1,175 1,178 1,199 1,201 1,204 1,207 1,210 1,211 1,215 1,225 1,230 1,233 1,238 1,241 1,243 1,245 1,246 1,249 1,259 1,264 1,270 1,277 1,278 1,286 1,300 1,303 1,308 1,309 1,313 1,326 1,328 1,329 1,331 1,332 1,334 1,344 1,352 1,355 1,357 1,361 1,365 1,369 1,382 1,383 1,387 1,388 1,389 1,390 1,391 1,402 1,409 1,413 1,417 1,425 1,428 1,437 1,439 1,442 1,447 1,449 1,453 1,457 1,467 1,468 1,474 1,491 1,493 1,495 1,497 1,503 1,505 1,508 1,509 1,518 1,521 1,528 1,535 1,536 1,538 1,539 1,541 1,548 1,551 1,552 1,553 1,554 1,564 1,567 1,569 1,588 1,603 1,604 1,609 1,642 1,643 1,645 1,654 1,657 1,660 1,673 1,674 1,679 1,695 1,696 1,701 1,703 1,714 1,719 1,746 1,749 1,752 1,761 1,763 1,777 1,779 1,782 1,783 1,784 1,788 1,789 1,790 1,793 1,796 1,798 1,807 1,813 1,816 1,819 1,822 1,824 1,831 1,834 1,835 1,836 1,845 1,846 1,849 1,853 1,859 1,863 1,865 1,867 1,868 1,871 1,872 1,873 1,875 1,877 1,879 1,883 1,892 1,893 1,895 1,896 1,904 1,909 1,911 1}
{4 1,16 1,39 1,55 1,56 1,82 1,95 1,114 1,115 1,123 1,183 1,184 1,204 1,271 1,273 1,274 1,311 1,328 1,329 1,341 1,345 1,361 1,365 1,369 1,391 1,397 1,404 1,415 1,417 1,459 1,464 1,468 1,497 1,501 1,515 1,518 1,528 1,567 1,573 1,597 1,628 1,644 1,671 1,719 1,725 1,782 1,783 1,793 1,794 1,796 1,807 1,835 1,851 1,854 1,865 1,867 1,870 1,878 1,895 1,900 1,909 1,911 1}
{4 1,55 1,82 1,114 1,171 1,188 1,210 1,228 1,244 1,245 1,329 1,345 1,361 1,369 1,388 1,433 1,468 1,524 1,657 1,677 1,708 1,746 1,763 1,782 1,783 1,826 1,849 1,858 1,903 1,904 1,913 1}
{4 1,29 1,37 1,39 1,45 1,51 1,54 1,55 1,61 1,82 1,114 1,115 1,153 1,168 1,204 1,208 1,210 1,222 1,229 1,235 1,245 1,267 1,300 1,328 1,329 1,343 1,357 1,361 1,365 1,369 1,371 1,388 1,391 1,409 1,434 1,457 1,464 1,473 1,491 1,528 1,548 1,558 1,564 1,567 1,569 1,570 1,616 1,619 1,654 1,660 1,680 1,696 1,714 1,749 1,754 1,758 1,763 1,782 1,783 1,796 1,807 1,818 1,834 1,849 1,863 1,869 1,872 1,875 1,877 1,883 1,895 1,909 1}
{39 1,40 1,43 1,51 1,55 1,60 1,61 1,65 1,123 1,228 1,287 1,300 1,304 1,361 1,365 1,369 1,388 1,397 1,433 1,541 1,552 1,566 1,608 1,612 1,691 1,709 1,738 1,782 1,783 1,788 1,804 1,807 1,821 1,870 1,872 1,909 1}
{4 1,14 1,24 1,39 1,45 1,51 1,70 1,82 1,85 1,86 1,122 1,152 1,204 1,207 1,213 1,222 1,228 1,229 1,232 1,233 1,277 1,294 1,295 1,329 1,332 1,357 1,361 1,365 1,369 1,386 1,388 1,391 1,399 1,428 1,449 1,460 1,463 1,470 1,478 1,491 1,493 1,523 1,528 1,529 1,583 1,636 1,657 1,679 1,764 1,783 1,786 1,789 1,807 1,858 1,859 1,863 1,864 1,895 1,913 1}
{4 1,39 1,51 1,55 1,56 1,61 1,71 1,79 1,114 1,123 1,152 1,207 1,286 1,334 1,369 1,371 1,388 1,464 1,496 1,518 1,528 1,548 1,567 1,593 1,612 1,648 1,650 1,667 1,679 1,695 1,767 1,783 1,792 1,796 1,807 1,809 1,859 1,872 1,875 1,883 1}
{4 1,5 1,39 1,55 1,75 1,82 1,87 1,114 1,117 1,128 1,135 1,149 1,156 1,177 1,187 1,204 1,207 1,260 1,277 1,288 1,296 1,305 1,308 1,312 1,329 1,342 1,361 1,365 1,369 1,375 1,386 1,388 1,391 1,402 1,433 1,442 1,452 1,453 1,469 1,480 1,488 1,490 1,491 1,518 1,521 1,528 1,536 1,541 1,588 1,592 1,595 1,600 1,601 1,623 1,625 1,627 1,629 1,631 1,642 1,647 1,657 1,668 1,673 1,702 1,703 1,714 1,715 1,725 1,755 1,779 1,782 1,783 1,784 1,790 1,793 1,796 1,807 1,828 1,840 1,842 1,846 1,854 1,858 1,859 1,867 1,869 1,872 1,876 1,877 1,879 1,883 1,895 1,909 1}
{4 1,11 1,18 1,37 1,46 1,56 1,61 1,82 1,83 1,141 1,148 1,152 1,173 1,177 1,198 1,203 1,204 1,228 1,233 1,245 1,261 1,317 1,328 1,329 1,332 1,361 1,365 1,369 1,372 1,388 1,391 1,433 1,453 1,470 1,491 1,493 1,496 1,497 1,507 1,508 1,512 1,515 1,528 1,538 1,541 1,553 1,591 1,657 1,659 1,691 1,708 1,714 1,742 1,770 1,779 1,782 1,783 1,784 1,786 1,789 1,790 1,807 1,830 1,834 1,854 1,863 1,867 1,875 1,880 1,883 1,903 1,904 1,909 1,913 1}
{4 1,6 1,37 1,39 1,43 1,55 1,71 1,86 1,91 1,92 1,115 1,121 1,123 1,128 1,131 1,168 1,201 1,204 1,228 1,243 1,280 1,286 1,310 1,328 1,329 1,332 1,336 1,345 1,361 1,363 1,369 1,388 1,391 1,473 1,474 1,508 1,515 1,521 1,528 1,552 1,601 1,603 1,604 1,657 1,682 1,701 1,759 1,782 1,783 1,791 1,796 1,799 1,807 1,867 1,872 1,885 1}
{4 1,11 1,14 1,39 1,51 1,53 1,55 1,56 1,82 1,83 1,86 1,128 1,149 1,210 1,228 1,245 1,252 1,277 1,304 1,308 1,327 1,329 1,333 1,335 1,361 1,365 1,369 1,388 1,402 1,411 1,420 1,429 1,497 1,509 1,515 1,528 1,534 1,552 1,623 1,647 1,679 1,690 1,695 1,697 1,711 1,761 1,763 1,765 1,769 1,775 1,779 1,782 1,783 1,790 1,792 1,796 1,800 1,846 1,854 1,863 1,907 1,909 1}
{4 1,6 1,11 1,18 1,24 1,39 1,51 1,61 1,86 1,88 1,110 1,152 1,181 1,209 1,240 1,244 1,271 1,286 1,294 1,295 1,317 1,325 1,328 1,329 1,332 1,350 1,353 1,357 1,361 1,369 1,388 1,417 1,433 1,438 1,470 1,478 1,482 1,491 1,508 1,528 1,533 1,538 1,548 1,551 1,553 1,577 1,583 1,625 1,632 1,676 1,677 1,691 1,703 1,763 1,779 1,782 1,783 1,784 1,790 1,807 1,834 1,846 1,854 1,859 1,867 1,869 1,872 1,875 1,883 1,887 1,903 1,904 1,913 1}
{4 1,6 1,51 1,59 1,276 1,321 1,361 1,365 1,388 1,391 1,409 1,470 1,491 1,528 1,541 1,627 1,632 1,709 1,714 1,782 1,783 1,796 1,807 1,883 1}
{4 1,6 1,37 1,39 1,54 1,61 1,82 1,92 1,96 1,114 1,177 1,193 1,199 1,269 1,271 1,277 1,290 1,305 1,311 1,361 1,363 1,369 1,375 1,407 1,425 1,452 1,453 1,490 1,501 1,506 1,518 1,528 1,536 1,538 1,570 1,607 1,657 1,679 1,695 1,697 1,714 1,725 1,743 1,782 1,783 1,786 1,788 1,796 1,807 1,875 1,890 1,895 1,909 1}
{4 1,39 1,55 1,56 1,82 1,114 1,171 1,188 1,210 1,228 1,243 1,244 1,245 1,313 1,329 1,345 1,349 1,361 1,369 1,388 1,433 1,468 1,518 1,524 1,585 1,657 1,677 1,708 1,746 1,763 1,782 1,783 1,790 1,812 1,826 1,849 1,858 1,877 1,903 1,904 1,913 1}
{4 1,24 1,37 1,39 1,43 1,45 1,47 1,51 1,56 1,57 1,82 1,84 1,114 1,115 1,168 1,181 1,207 1,228 1,233 1,277 1,286 1,300 1,328 1,329 1,336 1,365 1,369 1,377 1,382 1,388 1,391 1,424 1,434 1,440 1,444 1,473 1,493 1,496 1,497 1,509 1,515 1,518 1,528 1,536 1,538 1,564 1,592 1,617 1,709 1,714 1,730 1,751 1,760 1,782 1,783 1,787 1,790 1,796 1,802 1,807 1,872 1,875 1,878 1,883 1,890 1,895 1,909 1,911 1}
{4 1,15 1,18 1,21 1,29 1,39 1,43 1,55 1,61 1,106 1,108 1,114 1,117 1,228 1,235 1,277 1,299 1,313 1,321 1,328 1,329 1,337 1,361 1,369 1,388 1,391 1,400 1,411 1,433 1,439 1,442 1,497 1,501 1,502 1,510 1,518 1,528 1,536 1,537 1,600 1,615 1,617 1,714 1,716 1,719 1,725 1,763 1,782 1,783 1,788 1,790 1,796 1,801 1,807 1,815 1,854 1,856 1,861 1,869 1,875 1,878 1,883 1,891 1,895 1,904 1,911 1,912 1}
{6 1,39 1,43 1,55 1,76 1,82 1,114 1,141 1,170 1,177 1,189 1,207 1,210 1,228 1,267 1,277 1,286 1,294 1,301 1,308 1,328 1,329 1,361 1,369 1,380 1,388 1,402 1,409 1,445 1,509 1,518 1,528 1,536 1,539 1,678 1,714 1,729 1,763 1,772 1,782 1,783 1,790 1,796 1,805 1,807 1,851 1,901 1,908 1,911 1,913 1}
{4 1,24 1,26 1,29 1,31 1,32 1,39 1,43 1,51 1,52 1,54 1,55 1,56 1,61 1,85 1,87 1,103 1,114 1,186 1,199 1,204 1,205 1,210 1,220 1,228 1,232 1,277 1,280 1,286 1,296 1,300 1,307 1,321 1,329 1,339 1,353 1,361 1,363 1,369 1,388 1,391 1,409 1,434 1,449 1,470 1,473 1,489 1,491 1,495 1,497 1,508 1,509 1,518 1,528 1,536 1,541 1,567 1,588 1,625 1,630 1,670 1,680 1,698 1,705 1,709 1,714 1,716 1,755 1,761 1,763 1,782 1,783 1,785 1,792 1,793 1,796 1,801 1,804 1,807 1,813 1,817 1,834 1,841 1,849 1,854 1,858 1,859 1,863 1,864 1,867 1,869 1,878 1,883 1,909 1}
{4 1,6 1,24 1,25 1,41 1,51 1,55 1,114 1,123 1,149 1,227 1,228 1,234 1,319 1,369 1,388 1,391 1,448 1,463 1,536 1,541 1,671 1,725 1,764 1,767 1,783 1,796 1,807 1,872 1,879 1,897 1,899 1,909 1}
{4 1,55 1,82 1,91 1,114 1,116 1,171 1,188 1,204 1,210 1,228 1,244 1,245 1,294 1,329 1,332 1,344 1,345 1,361 1,369 1,388 1,391 1,433 1,453 1,468 1,478 1,524 1,528 1,535 1,538 1,541 1,657 1,669 1,677 1,708 1,716 1,719 1,737 1,746 1,752 1,763 1,773 1,782 1,783 1,795 1,807 1,825 1,826 1,849 1,858 1,877 1,903 1,904 1,909 1,913 1}
{4 1,6 1,7 1,11 1,14 1,19 1,24 1,37 1,39 1,43 1,46 1,51 1,53 1,54 1,55 1,56 1,61 1,70 1,82 1,83 1,87 1,123 1,136 1,152 1,157 1,164 1,165 1,171 1,177 1,182 1,199 1,204 1,208 1,210 1,227 1,228 1,235 1,239 1,243 1,250 1,260 1,264 1,267 1,277 1,286 1,293 1,296 1,299 1,301 1,308 1,310 1,313 1,324 1,328 1,329 1,331 1,332 1,338 1,344 1,345 1,352 1,357 1,360 1,361 1,369 1,386 1,387 1,388 1,391 1,392 1,402 1,411 1,413 1,422 1,425 1,431 1,441 1,449 1,457 1,463 1,464 1,468 1,470 1,491 1,495 1,497 1,513 1,518 1,528 1,536 1,541 1,548 1,552 1,559 1,605 1,609 1,614 1,627 1,630 1,642 1,644 1,645 1,651 1,657 1,662 1,672 1,680 1,681 1,682 1,709 1,714 1,716 1,737 1,752 1,763 1,779 1,782 1,783 1,784 1,785 1,787 1,790 1,791 1,796 1,805 1,807 1,809 1,832 1,834 1,837 1,841 1,846 1,849 1,854 1,858 1,863 1,865 1,867 1,870 1,872 1,883 1,887 1,890 1,893 1,898 1,906 1,909 1}
{4 1,18 1,21 1,24 1,39 1,55 1,56 1,61 1,106 1,114 1,123 1,207 1,228 1,235 1,241 1,277 1,311 1,313 1,321 1,328 1,329 1,337 1,358 1,361 1,369 1,388 1,391 1,400 1,411 1,433 1,439 1,442 1,460 1,491 1,493 1,495 1,497 1,501 1,502 1,515 1,518 1,528 1,536 1,537 1,538 1,600 1,615 1,618 1,657 1,714 1,716 1,719 1,725 1,732 1,750 1,763 1,779 1,782 1,783 1,788 1,790 1,801 1,807 1,815 1,825 1,854 1,856 1,861 1,869 1,890 1,895 1,904 1,911 1,912 1}
{51 1,56 1,61 1,271 1,277 1,361 1,365 1,388 1,453 1,528 1,536 1,555 1,571 1,680 1,782 1,783 1,789 1,790 1,805 1,823 1,854 1,872 1,913 1}
{4 1,5 1,14 1,15 1,29 1,37 1,39 1,43 1,51 1,52 1,56 1,82 1,85 1,87 1,98 1,115 1,123 1,147 1,170 1,193 1,201 1,208 1,215 1,220 1,266 1,277 1,303 1,321 1,328 1,329 1,338 1,369 1,386 1,388 1,391 1,402 1,463 1,467 1,469 1,474 1,487 1,489 1,497 1,512 1,518 1,521 1,528 1,532 1,535 1,538 1,539 1,541 1,545 1,548 1,552 1,558 1,560 1,564 1,616 1,626 1,630 1,632 1,657 1,660 1,667 1,679 1,693 1,698 1,702 1,709 1,714 1,741 1,742 1,749 1,755 1,763 1,764 1,777 1,779 1,782 1,783 1,785 1,789 1,790 1,796 1,802 1,807 1,818 1,823 1,831 1,834 1,835 1,836 1,837 1,855 1,858 1,859 1,860 1,863 1,865 1,872 1,879 1,883 1,885 1,887 1,893 1,903 1}
{4 1,6 1,45 1,61 1,145 1,207 1,255 1,321 1,357 1,409 1,452 1,468 1,491 1,495 1,528 1,536 1,734 1,783 1,796 1,807 1,828 1,852 1}
{4 1,6 1,39 1,55 1,56 1,61 1,82 1,114 1,127 1,171 1,188 1,204 1,208 1,210 1,228 1,233 1,235 1,244 1,245 1,246 1,267 1,300 1,305 1,329 1,332 1,345 1,360 1,361 1,369 1,386 1,388 1,402 1,418 1,433 1,439 1,463 1,468 1,524 1,528 1,536 1,638 1,657 1,677 1,708 1,709 1,746 1,763 1,782 1,783 1,784 1,790 1,804 1,807 1,812 1,826 1,837 1,849 1,854 1,858 1,877 1,879 1,903 1,904 1,909 1,913 1}
{4 1,6 1,9 1,15 1,24 1,29 1,39 1,43 1,51 1,55 1,56 1,61 1,70 1,74 1,82 1,85 1,93 1,111 1,114 1,115 1,123 1,136 1,164 1,171 1,182 1,195 1,196 1,197 1,198 1,199 1,200 1,204 1,207 1,210 1,211 1,213 1,227 1,228 1,233 1,239 1,243 1,244 1,245 1,246 1,251 1,258 1,266 1,277 1,286 1,298 1,300 1,302 1,305 1,307 1,309 1,322 1,328 1,329 1,335 1,342 1,357 1,361 1,369 1,388 1,389 1,391 1,402 1,404 1,416 1,427 1,434 1,437 1,439 1,449 1,451 1,453 1,457 1,466 1,470 1,482 1,493 1,495 1,497 1,508 1,515 1,518 1,528 1,529 1,536 1,538 1,539 1,541 1,549 1,553 1,555 1,567 1,570 1,578 1,606 1,616 1,643 1,656 1,657 1,681 1,691 1,707 1,709 1,714 1,715 1,716 1,717 1,739 1,746 1,755 1,763 1,766 1,779 1,782 1,783 1,785 1,788 1,790 1,793 1,796 1,804 1,807 1,812 1,821 1,832 1,834 1,835 1,841 1,842 1,846 1,849 1,851 1,858 1,860 1,862 1,867 1,869 1,871 1,875 1,876 1,879 1,883 1,885 1,887 1,890 1,892 1,895 1,900 1,903 1,907 1,909 1,911 1}
{4 1,6 1,56 1,112 1,228 1,271 1,277 1,280 1,329 1,361 1,362 1,369 1,391 1,409 1,421 1,528 1,666 1,677 1,717 1,725 1,738 1,782 1,783 1,790 1,796 1,800 1,811 1,854 1,869 1}
{4 1,6 1,14 1,28 1,32 1,37 1,39 1,51 1,55 1,56 1,61 1,65 1,66 1,76 1,90 1,114 1,115 1,123 1,175 1,182 1,204 1,207 1,210 1,211 1,213 1,222 1,226 1,228 1,232 1,243 1,245 1,247 1,260 1,262 1,277 1,300 1,308 1,313 1,328 1,329 1,331 1,339 1,361 1,365 1,369 1,386 1,388 1,391 1,402 1,404 1,407 1,418 1,436 1,453 1,455 1,463 1,483 1,497 1,505 1,510 1,515 1,518 1,528 1,529 1,536 1,537 1,538 1,539 1,541 1,548 1,549 1,553 1,567 1,570 1,588 1,592 1,594 1,595 1,615 1,638 1,645 1,657 1,679 1,683 1,688 1,689 1,690 1,714 1,750 1,752 1,755 1,763 1,764 1,779 1,781 1,782 1,783 1,784 1,788 1,796 1,798 1,802 1,804 1,807 1,822 1,834 1,836 1,852 1,854 1,858 1,860 1,866 1,867 1,875 1,890 1,893 1,909 1,911 1,913 1}
{6 1,24 1,39 1,51 1,67 1,85 1,115 1,281 1,310 1,361 1,454 1,497 1,509 1,536 1,570 1,616 1,679 1,781 1,783 1,788 1,807 1,846 1,854 1,860 1,869 1,875 1}
{0 1,1 1,2 1,3 1,6 1,10 1,39 1,49 1,51 1,56 1,61 1,69 1,82 1,117 1,123 1,178 1,183 1,212 1,235 1,252 1,277 1,286 1,328 1,369 1,388 1,400 1,453 1,485 1,490 1,501 1,509 1,512 1,515 1,521 1,528 1,536 1,559 1,609 1,610 1,654 1,657 1,700 1,739 1,756 1,783 1,807 1,848 1,860 1,872 1,879 1}
{4 1,39 1,51 1,55 1,61 1,106 1,109 1,154 1,173 1,195 1,207 1,213 1,228 1,262 1,357 1,365 1,369 1,386 1,388 1,391 1,425 1,440 1,502 1,515 1,536 1,538 1,541 1,548 1,555 1,567 1,606 1,657 1,709 1,740 1,746 1,769 1,770 1,773 1,782 1,783 1,784 1,785 1,788 1,790 1,793 1,794 1,796 1,802 1,807 1,833 1,834 1,854 1,863 1,875 1,877 1,879 1,883 1,895 1,913 1}
{4 1,6 1,24 1,37 1,39 1,43 1,51 1,70 1,87 1,114 1,115 1,134 1,135 1,197 1,210 1,267 1,277 1,286 1,361 1,383 1,387 1,388 1,391 1,402 1,491 1,503 1,509 1,548 1,567 1,638 1,645 1,763 1,779 1,782 1,783 1,787 1,807 1,821 1,834 1,854 1,858 1,872 1,883 1,904 1}
{4 1,6 1,9 1,13 1,29 1,32 1,37 1,39 1,51 1,56 1,61 1,65 1,77 1,82 1,87 1,115 1,121 1,123 1,132 1,151 1,163 1,175 1,255 1,268 1,277 1,285 1,286 1,293 1,300 1,355 1,357 1,361 1,369 1,370 1,371 1,377 1,382 1,385 1,388 1,391 1,487 1,501 1,518 1,519 1,523 1,527 1,528 1,538 1,541 1,573 1,582 1,587 1,594 1,606 1,607 1,652 1,657 1,672 1,697 1,712 1,725 1,729 1,742 1,743 1,748 1,762 1,782 1,783 1,788 1,796 1,807 1,817 1,823 1,830 1,836 1,851 1,854 1,860 1,872 1,873 1,875 1,879 1,885 1}
{4 1,39 1,48 1,51 1,76 1,85 1,95 1,99 1,114 1,180 1,182 1,228 1,233 1,267 1,272 1,277 1,281 1,307 1,329 1,332 1,345 1,361 1,388 1,399 1,460 1,521 1,528 1,536 1,539 1,541 1,555 1,615 1,657 1,661 1,715 1,764 1,783 1,800 1,807 1,834 1,854 1,867 1,879 1,883 1,913 1}
{4 1,6 1,37 1,39 1,70 1,82 1,85 1,100 1,103 1,111 1,114 1,123 1,125 1,130 1,201 1,229 1,233 1,248 1,277 1,329 1,331 1,369 1,388 1,390 1,391 1,417 1,433 1,496 1,518 1,528 1,541 1,562 1,567 1,605 1,607 1,623 1,635 1,657 1,681 1,699 1,709 1,746 1,782 1,783 1,807 1,834 1,845 1,849 1,854 1,872 1,883 1,895 1,903 1}
{4 1,39 1,56 1,132 1,152 1,265 1,286 1,302 1,329 1,361 1,365 1,369 1,371 1,391 1,439 1,453 1,497 1,528 1,531 1,601 1,657 1,672 1,714 1,725 1,743 1,747 1,785 1,807 1,863 1,883 1,911 1}
{6 1,43 1,45 1,46 1,171 1,177 1,212 1,323 1,325 1,328 1,332 1,335 1,361 1,491 1,676 1,783 1,796 1,807 1,856 1,867 1,883 1,901 1,913 1}
{4 1,37 1,55 1,61 1,88 1,90 1,123 1,152 1,221 1,228 1,248 1,254 1,277 1,327 1,361 1,369 1,388 1,434 1,456 1,458 1,466 1,493 1,494 1,528 1,552 1,625 1,626 1,673 1,727 1,745 1,763 1,775 1,783 1,790 1,796 1,867 1,883 1,909 1}
{4 1,6 1,9 1,18 1,36 1,39 1,51 1,87 1,114 1,115 1,132 1,152 1,169 1,175 1,265 1,286 1,287 1,300 1,331 1,365 1,369 1,385 1,391 1,402 1,489 1,510 1,528 1,531 1,536 1,539 1,548 1,551 1,553 1,601 1,617 1,625 1,637 1,655 1,657 1,672 1,711 1,725 1,740 1,747 1,783 1,796 1,802 1,807 1,825 1,859 1,875 1,883 1}
{4 1,6 1,18 1,31 1,37 1,39 1,43 1,46 1,54 1,56 1,82 1,83 1,85 1,86 1,87 1,92 1,102 1,104 1,114 1,115 1,123 1,169 1,176 1,183 1,204 1,207 1,209 1,210 1,243 1,264 1,267 1,277 1,294 1,295 1,303 1,307 1,321 1,328 1,332 1,344 1,357 1,361 1,365 1,369 1,374 1,388 1,389 1,391 1,397 1,402 1,404 1,409 1,433 1,437 1,444 1,449 1,453 1,457 1,467 1,468 1,476 1,488 1,491 1,495 1,509 1,510 1,515 1,518 1,521 1,528 1,536 1,538 1,539 1,541 1,548 1,559 1,567 1,584 1,598 1,601 1,623 1,627 1,639 1,647 1,655 1,657 1,659 1,695 1,698 1,763 1,769 1,779 1,782 1,783 1,788 1,790 1,796 1,798 1,800 1,807 1,823 1,825 1,834 1,841 1,844 1,849 1,854 1,858 1,863 1,867 1,871 1,875 1,880 1,883 1,895 1,896 1,897 1,899 1,908 1,913 1}
{4 1,7 1,11 1,14 1,30 1,43 1,51 1,55 1,56 1,72 1,82 1,88 1,89 1,93 1,100 1,114 1,123 1,147 1,152 1,204 1,210 1,211 1,251 1,270 1,274 1,277 1,299 1,358 1,360 1,361 1,369 1,388 1,414 1,429 1,430 1,498 1,518 1,524 1,528 1,538 1,541 1,603 1,621 1,645 1,657 1,660 1,703 1,763 1,777 1,779 1,782 1,783 1,788 1,789 1,790 1,807 1,842 1,849 1,851 1,863 1,867 1,872 1,876 1,879 1,883 1,910 1}
{4 1,6 1,17 1,23 1,39 1,44 1,55 1,61 1,82 1,96 1,114 1,115 1,166 1,168 1,177 1,193 1,199 1,204 1,228 1,235 1,267 1,271 1,277 1,294 1,305 1,312 1,329 1,342 1,361 1,365 1,369 1,391 1,402 1,407 1,416 1,425 1,453 1,457 1,469 1,477 1,478 1,490 1,506 1,518 1,522 1,528 1,536 1,553 1,570 1,627 1,679 1,712 1,714 1,716 1,725 1,767 1,782 1,783 1,786 1,788 1,807 1,820 1,821 1,859 1,865 1,875 1,877 1,883 1,895 1,909 1}
{6 1,43 1,45 1,46 1,171 1,177 1,212 1,228 1,323 1,325 1,328 1,332 1,335 1,361 1,491 1,676 1,783 1,796 1,807 1,856 1,867 1,883 1,901 1,913 1}
{4 1,7 1,15 1,24 1,26 1,28 1,29 1,32 1,33 1,37 1,39 1,43 1,46 1,51 1,53 1,55 1,56 1,61 1,65 1,67 1,82 1,85 1,89 1,91 1,93 1,108 1,114 1,115 1,117 1,123 1,125 1,135 1,140 1,144 1,152 1,153 1,156 1,168 1,170 1,194 1,197 1,199 1,201 1,204 1,209 1,211 1,221 1,229 1,230 1,231 1,248 1,264 1,275 1,276 1,277 1,280 1,281 1,286 1,301 1,302 1,305 1,324 1,326 1,327 1,328 1,329 1,332 1,357 1,360 1,361 1,364 1,369 1,375 1,376 1,382 1,383 1,387 1,388 1,390 1,391 1,392 1,399 1,402 1,409 1,410 1,413 1,425 1,427 1,433 1,442 1,456 1,459 1,463 1,467 1,468 1,469 1,470 1,471 1,491 1,493 1,494 1,495 1,496 1,500 1,508 1,515 1,516 1,517 1,518 1,519 1,520 1,528 1,536 1,538 1,541 1,548 1,553 1,558 1,567 1,588 1,595 1,611 1,616 1,625 1,627 1,629 1,631 1,642 1,645 1,647 1,657 1,658 1,667 1,673 1,679 1,682 1,696 1,704 1,707 1,714 1,715 1,723 1,727 1,737 1,745 1,748 1,749 1,752 1,760 1,761 1,763 1,778 1,779 1,782 1,783 1,784 1,788 1,790 1,792 1,793 1,796 1,805 1,807 1,812 1,834 1,836 1,837 1,838 1,849 1,851 1,854 1,859 1,863 1,865 1,867 1,870 1,872 1,875 1,877 1,883 1,885 1,890 1,895 1,898 1,907 1,909 1}
{4 1,6 1,14 1,23 1,24 1,29 1,37 1,39 1,54 1,55 1,61 1,82 1,92 1,96 1,114 1,177 1,193 1,199 1,204 1,228 1,269 1,271 1,277 1,290 1,300 1,305 1,311 1,329 1,342 1,361 1,363 1,365 1,369 1,375 1,387 1,391 1,402 1,407 1,425 1,452 1,453 1,469 1,477 1,490 1,501 1,505 1,506 1,518 1,522 1,528 1,536 1,538 1,559 1,570 1,607 1,657 1,679 1,695 1,697 1,714 1,725 1,743 1,782 1,783 1,786 1,788 1,790 1,796 1,807 1,875 1,890 1,895 1,909 1}
{4 1,6 1,43 1,45 1,46 1,55 1,171 1,177 1,212 1,228 1,323 1,325 1,328 1,332 1,335 1,361 1,369 1,395 1,479 1,491 1,676 1,783 1,796 1,807 1,856 1,867 1,883 1,901 1,913 1}
{4 1,6 1,17 1,24 1,37 1,39 1,51 1,56 1,61 1,82 1,103 1,106 1,108 1,114 1,123 1,130 1,142 1,143 1,169 1,239 1,246 1,277 1,279 1,286 1,329 1,342 1,361 1,369 1,388 1,390 1,391 1,411 1,430 1,456 1,496 1,518 1,520 1,521 1,528 1,538 1,539 1,541 1,567 1,603 1,629 1,667 1,700 1,702 1,709 1,714 1,782 1,783 1,785 1,786 1,790 1,796 1,800 1,805 1,807 1,833 1,837 1,869 1,871 1,875 1,879 1,886 1,909 1,910 1}
{4 1,61 1,114 1,125 1,222 1,225 1,303 1,345 1,361 1,369 1,388 1,403 1,438 1,470 1,482 1,500 1,501 1,528 1,783 1,788 1,796 1,859 1,895 1,906 1}
{4 1,7 1,14 1,24 1,27 1,29 1,37 1,39 1,41 1,43 1,51 1,54 1,55 1,56 1,61 1,75 1,78 1,82 1,95 1,101 1,114 1,115 1,135 1,146 1,170 1,174 1,177 1,181 1,210 1,228 1,229 1,231 1,243 1,250 1,256 1,271 1,277 1,303 1,307 1,321 1,327 1,328 1,329 1,347 1,348 1,350 1,361 1,365 1,369 1,386 1,388 1,394 1,399 1,402 1,428 1,434 1,437 1,439 1,468 1,469 1,491 1,495 1,505 1,515 1,518 1,523 1,528 1,530 1,532 1,536 1,538 1,548 1,549 1,573 1,578 1,587 1,601 1,631 1,650 1,656 1,657 1,675 1,704 1,714 1,719 1,728 1,744 1,746 1,763 1,769 1,770 1,779 1,782 1,783 1,788 1,790 1,795 1,805 1,807 1,812 1,821 1,837 1,844 1,849 1,859 1,863 1,872 1,879 1,883 1,890 1,896 1,907 1,909 1,911 1,913 1}
{4 1,6 1,24 1,37 1,39 1,43 1,46 1,51 1,55 1,61 1,70 1,87 1,88 1,114 1,115 1,134 1,135 1,143 1,152 1,170 1,194 1,197 1,210 1,221 1,260 1,267 1,277 1,286 1,327 1,361 1,365 1,369 1,383 1,387 1,388 1,391 1,402 1,456 1,464 1,491 1,495 1,503 1,509 1,515 1,528 1,536 1,548 1,567 1,638 1,645 1,650 1,657 1,696 1,709 1,727 1,745 1,763 1,779 1,782 1,783 1,784 1,787 1,790 1,796 1,807 1,821 1,834 1,844 1,852 1,854 1,858 1,872 1,875 1,879 1,883 1,902 1,904 1}
{4 1,6 1,9 1,39 1,45 1,61 1,145 1,152 1,166 1,200 1,207 1,255 1,286 1,310 1,321 1,357 1,361 1,369 1,371 1,388 1,391 1,399 1,409 1,452 1,455 1,468 1,491 1,495 1,528 1,536 1,562 1,716 1,734 1,783 1,796 1,807 1,828 1,852 1,910 1}
{29 1,39 1,55 1,102 1,152 1,174 1,177 1,261 1,272 1,281 1,295 1,321 1,328 1,329 1,332 1,346 1,359 1,361 1,369 1,388 1,398 1,402 1,453 1,464 1,507 1,515 1,539 1,552 1,584 1,588 1,657 1,782 1,783 1,800 1,801 1,807 1,823 1,872 1,913 1}
{4 1,10 1,19 1,29 1,32 1,37 1,39 1,43 1,51 1,53 1,54 1,55 1,56 1,61 1,82 1,85 1,91 1,92 1,93 1,94 1,114 1,115 1,121 1,123 1,135 1,152 1,154 1,157 1,171 1,174 1,198 1,204 1,207 1,210 1,211 1,228 1,250 1,255 1,273 1,277 1,296 1,307 1,308 1,310 1,328 1,331 1,332 1,339 1,344 1,345 1,357 1,360 1,361 1,363 1,364 1,368 1,369 1,386 1,388 1,391 1,402 1,405 1,407 1,410 1,415 1,422 1,425 1,427 1,433 1,449 1,457 1,458 1,464 1,469 1,482 1,491 1,493 1,509 1,518 1,528 1,532 1,536 1,538 1,539 1,541 1,548 1,551 1,552 1,559 1,603 1,618 1,630 1,644 1,651 1,657 1,662 1,672 1,673 1,681 1,695 1,700 1,714 1,716 1,748 1,763 1,768 1,779 1,782 1,783 1,787 1,790 1,791 1,793 1,794 1,796 1,807 1,817 1,829 1,832 1,834 1,838 1,849 1,854 1,858 1,859 1,867 1,869 1,871 1,872 1,873 1,877 1,883 1,889 1,890 1,895 1,909 1}
{0 1,1 1,4 1,6 1,9 1,24 1,33 1,37 1,39 1,44 1,45 1,51 1,55 1,56 1,61 1,71 1,82 1,110 1,114 1,123 1,145 1,152 1,166 1,182 1,184 1,190 1,200 1,207 1,210 1,214 1,220 1,240 1,255 1,265 1,277 1,279 1,286 1,311 1,321 1,339 1,356 1,357 1,360 1,361 1,364 1,369 1,380 1,383 1,384 1,386 1,388 1,391 1,392 1,399 1,409 1,451 1,452 1,453 1,455 1,468 1,470 1,472 1,485 1,491 1,495 1,501 1,506 1,509 1,515 1,525 1,528 1,536 1,538 1,541 1,555 1,562 1,607 1,608 1,657 1,669 1,673 1,685 1,694 1,705 1,714 1,721 1,725 1,729 1,734 1,752 1,762 1,763 1,782 1,783 1,784 1,788 1,790 1,796 1,807 1,812 1,825 1,828 1,835 1,851 1,852 1,855 1,879 1,883 1,884 1,885 1,895 1,907 1,909 1}
{4 1,177 1,361 1,679 1,783 1,807 1,913 1}
{4 1,6 1,19 1,26 1,37 1,39 1,47 1,114 1,123 1,168 1,205 1,229 1,260 1,277 1,302 1,329 1,361 1,369 1,388 1,391 1,426 1,432 1,470 1,497 1,515 1,536 1,557 1,603 1,616 1,629 1,650 1,657 1,685 1,693 1,694 1,709 1,714 1,728 1,758 1,763 1,782 1,783 1,788 1,807 1,818 1,840 1,873 1,883 1,907 1}
{4 1,24 1,35 1,39 1,156 1,196 1,277 1,317 1,335 1,342 1,361 1,369 1,388 1,416 1,552 1,589 1,620 1,625 1,725 1,743 1,763 1,782 1,783 1,790 1,796 1,855 1}
{4 1,14 1,16 1,55 1,76 1,85 1,90 1,125 1,153 1,204 1,210 1,220 1,228 1,262 1,277 1,295 1,300 1,329 1,339 1,358 1,361 1,365 1,369 1,388 1,391 1,402 1,409 1,428 1,433 1,470 1,515 1,528 1,536 1,567 1,587 1,592 1,594 1,595 1,603 1,630 1,659 1,679 1,714 1,763 1,781 1,782 1,783 1,790 1,793 1,807 1,852 1,867 1,883 1,887 1,909 1,911 1,913 1}
{4 1,6 1,7 1,24 1,37 1,39 1,55 1,56 1,57 1,61 1,88 1,90 1,123 1,152 1,221 1,228 1,233 1,246 1,248 1,254 1,277 1,306 1,307 1,315 1,327 1,361 1,363 1,365 1,369 1,388 1,391 1,402 1,404 1,434 1,435 1,437 1,453 1,456 1,458 1,466 1,491 1,493 1,494 1,518 1,521 1,528 1,541 1,548 1,550 1,551 1,552 1,567 1,625 1,626 1,657 1,673 1,691 1,727 1,745 1,751 1,763 1,775 1,782 1,783 1,790 1,796 1,802 1,807 1,812 1,834 1,852 1,854 1,859 1,863 1,867 1,883 1,909 1,911 1}
{4 1,24 1,39 1,55 1,56 1,87 1,156 1,174 1,177 1,207 1,286 1,329 1,369 1,388 1,402 1,433 1,480 1,495 1,510 1,518 1,536 1,548 1,619 1,672 1,783 1,792 1,807 1,849 1,890 1}
{4 1,6 1,24 1,29 1,37 1,39 1,51 1,55 1,56 1,61 1,66 1,75 1,76 1,78 1,82 1,83 1,85 1,91 1,92 1,102 1,114 1,115 1,123 1,127 1,131 1,154 1,170 1,178 1,198 1,208 1,222 1,228 1,243 1,256 1,264 1,266 1,268 1,277 1,282 1,284 1,293 1,295 1,320 1,321 1,328 1,329 1,332 1,344 1,350 1,357 1,359 1,361 1,365 1,369 1,379 1,388 1,391 1,394 1,399 1,416 1,417 1,423 1,425 1,429 1,436 1,454 1,457 1,459 1,464 1,479 1,491 1,497 1,506 1,518 1,528 1,529 1,536 1,538 1,541 1,554 1,555 1,568 1,584 1,585 1,586 1,588 1,591 1,609 1,619 1,621 1,624 1,630 1,632 1,633 1,647 1,654 1,656 1,657 1,695 1,701 1,703 1,707 1,709 1,714 1,723 1,746 1,763 1,765 1,779 1,782 1,783 1,784 1,790 1,793 1,796 1,799 1,804 1,807 1,816 1,834 1,840 1,846 1,854 1,858 1,859 1,868 1,889 1,891 1,895 1,904 1,913 1}
{4 1,37 1,39 1,43 1,45 1,56 1,93 1,114 1,121 1,177 1,207 1,223 1,329 1,336 1,361 1,388 1,391 1,409 1,433 1,497 1,528 1,541 1,644 1,650 1,682 1,694 1,718 1,782 1,784 1,796 1,807 1,819 1,846 1,860 1,883 1}
{4 1,6 1,17 1,23 1,39 1,44 1,55 1,61 1,82 1,96 1,114 1,115 1,166 1,168 1,177 1,193 1,199 1,204 1,228 1,235 1,239 1,258 1,267 1,271 1,277 1,294 1,305 1,312 1,329 1,342 1,361 1,365 1,369 1,391 1,402 1,407 1,416 1,425 1,453 1,457 1,469 1,477 1,478 1,490 1,506 1,518 1,522 1,528 1,533 1,536 1,553 1,570 1,627 1,679 1,712 1,714 1,716 1,725 1,749 1,767 1,782 1,783 1,786 1,788 1,807 1,820 1,821 1,859 1,865 1,875 1,877 1,883 1,895 1,909 1}
{4 1,6 1,27 1,29 1,39 1,54 1,55 1,56 1,61 1,75 1,82 1,101 1,115 1,168 1,177 1,181 1,210 1,228 1,243 1,271 1,277 1,303 1,307 1,327 1,328 1,361 1,365 1,368 1,369 1,386 1,388 1,391 1,399 1,402 1,428 1,429 1,437 1,439 1,449 1,469 1,491 1,495 1,515 1,528 1,530 1,532 1,536 1,538 1,578 1,601 1,650 1,656 1,657 1,675 1,704 1,744 1,763 1,769 1,779 1,782 1,783 1,788 1,790 1,795 1,796 1,807 1,841 1,858 1,872 1,883 1,896 1,909 1,913 1}
{4 1,6 1,24 1,29 1,37 1,39 1,51 1,55 1,56 1,61 1,74 1,77 1,82 1,83 1,87 1,88 1,97 1,114 1,115 1,118 1,120 1,123 1,139 1,153 1,158 1,159 1,164 1,168 1,171 1,195 1,202 1,209 1,210 1,217 1,228 1,242 1,243 1,247 1,253 1,266 1,277 1,286 1,298 1,299 1,302 1,305 1,308 1,309 1,316 1,318 1,328 1,329 1,331 1,339 1,344 1,345 1,353 1,354 1,357 1,361 1,363 1,365 1,369 1,381 1,387 1,388 1,391 1,404 1,428 1,440 1,449 1,450 1,457 1,459 1,463 1,468 1,470 1,473 1,474 1,488 1,491 1,497 1,499 1,500 1,505 1,515 1,518 1,528 1,531 1,536 1,538 1,539 1,541 1,554 1,564 1,578 1,579 1,601 1,613 1,615 1,623 1,630 1,655 1,657 1,667 1,668 1,679 1,692 1,706 1,714 1,715 1,752 1,754 1,757 1,758 1,763 1,779 1,782 1,783 1,784 1,786 1,788 1,789 1,790 1,793 1,796 1,798 1,799 1,807 1,812 1,817 1,820 1,829 1,832 1,834 1,839 1,842 1,845 1,858 1,863 1,867 1,870 1,875 1,883 1,888 1,895 1,909 1,911 1}
{4 1,38 1,39 1,51 1,56 1,77 1,82 1,114 1,115 1,117 1,128 1,175 1,178 1,209 1,222 1,238 1,265 1,273 1,274 1,277 1,310 1,328 1,339 1,358 1,361 1,369 1,374 1,388 1,402 1,405 1,410 1,444 1,455 1,479 1,528 1,536 1,541 1,548 1,551 1,559 1,570 1,587 1,594 1,625 1,629 1,683 1,711 1,714 1,715 1,761 1,762 1,777 1,783 1,796 1,804 1,807 1,828 1,835 1,837 1,845 1,854 1,859 1,863 1,879 1,883 1,890 1,891 1,895 1,909 1,911 1}
{4 1,12 1,22 1,24 1,27 1,33 1,37 1,39 1,51 1,56 1,61 1,66 1,68 1,75 1,76 1,77 1,78 1,80 1,82 1,85 1,114 1,115 1,116 1,120 1,162 1,171 1,177 1,187 1,188 1,192 1,210 1,228 1,235 1,241 1,245 1,256 1,271 1,277 1,294 1,300 1,305 1,308 1,320 1,329 1,348 1,357 1,361 1,363 1,365 1,368 1,369 1,377 1,386 1,388 1,391 1,393 1,403 1,404 1,412 1,428 1,437 1,442 1,453 1,454 1,457 1,459 1,463 1,491 1,497 1,500 1,502 1,506 1,514 1,518 1,523 1,528 1,534 1,536 1,545 1,552 1,555 1,577 1,583 1,584 1,592 1,601 1,615 1,619 1,655 1,657 1,660 1,677 1,679 1,694 1,695 1,709 1,714 1,715 1,752 1,764 1,769 1,781 1,782 1,783 1,796 1,807 1,812 1,816 1,821 1,826 1,837 1,840 1,846 1,851 1,858 1,867 1,869 1,873 1,877 1,883 1,895 1,913 1}
{4 1,5 1,6 1,13 1,14 1,15 1,22 1,24 1,29 1,31 1,33 1,37 1,39 1,41 1,42 1,43 1,45 1,49 1,51 1,56 1,57 1,61 1,70 1,71 1,82 1,83 1,85 1,86 1,87 1,91 1,92 1,94 1,97 1,102 1,107 1,114 1,115 1,116 1,120 1,123 1,132 1,174 1,177 1,178 1,179 1,181 1,183 1,197 1,210 1,214 1,223 1,230 1,231 1,239 1,243 1,250 1,253 1,260 1,271 1,277 1,280 1,285 1,286 1,292 1,304 1,307 1,308 1,321 1,328 1,329 1,332 1,336 1,338 1,339 1,345 1,352 1,353 1,354 1,358 1,361 1,364 1,365 1,366 1,369 1,371 1,377 1,379 1,383 1,384 1,388 1,391 1,392 1,396 1,402 1,403 1,404 1,407 1,416 1,417 1,427 1,431 1,432 1,433 1,441 1,442 1,449 1,457 1,459 1,463 1,468 1,473 1,493 1,502 1,505 1,509 1,510 1,511 1,512 1,515 1,518 1,521 1,523 1,525 1,528 1,536 1,539 1,541 1,547 1,548 1,551 1,552 1,555 1,561 1,570 1,579 1,592 1,594 1,597 1,598 1,607 1,612 1,614 1,617 1,630 1,637 1,638 1,641 1,643 1,650 1,654 1,655 1,657 1,677 1,679 1,680 1,690 1,691 1,693 1,694 1,695 1,708 1,709 1,714 1,755 1,764 1,776 1,780 1,782 1,783 1,784 1,788 1,790 1,796 1,798 1,804 1,807 1,818 1,823 1,828 1,835 1,836 1,837 1,838 1,845 1,849 1,850 1,854 1,859 1,860 1,861 1,863 1,865 1,867 1,870 1,873 1,879 1,883 1,889 1,892 1,893 1,895 1,903 1,904 1,908 1,909 1,911 1}
{4 1,5 1,6 1,9 1,12 1,24 1,39 1,45 1,51 1,55 1,61 1,70 1,82 1,87 1,95 1,98 1,123 1,145 1,152 1,194 1,200 1,207 1,255 1,258 1,277 1,279 1,305 1,311 1,321 1,329 1,339 1,341 1,354 1,357 1,361 1,365 1,369 1,392 1,409 1,433 1,452 1,460 1,468 1,470 1,490 1,491 1,495 1,497 1,501 1,506 1,528 1,536 1,562 1,607 1,615 1,657 1,683 1,685 1,714 1,721 1,725 1,734 1,781 1,782 1,783 1,785 1,796 1,798 1,807 1,828 1,836 1,853 1,859 1,872 1,875 1,877 1,879 1,883 1,885 1,909 1}
{4 1,11 1,39 1,61 1,76 1,91 1,115 1,116 1,196 1,209 1,233 1,310 1,332 1,344 1,354 1,361 1,365 1,391 1,396 1,397 1,417 1,428 1,442 1,470 1,508 1,528 1,572 1,592 1,594 1,603 1,618 1,627 1,634 1,650 1,657 1,660 1,701 1,703 1,714 1,745 1,746 1,763 1,773 1,780 1,782 1,783 1,804 1,846 1,854 1,856 1,867 1,883 1,895 1,898 1,909 1,911 1,913 1}
{4 1,6 1,7 1,11 1,24 1,37 1,39 1,51 1,55 1,56 1,61 1,82 1,83 1,100 1,103 1,106 1,115 1,123 1,130 1,152 1,169 1,221 1,224 1,228 1,239 1,275 1,276 1,277 1,279 1,286 1,300 1,307 1,327 1,342 1,360 1,361 1,365 1,369 1,388 1,389 1,390 1,391 1,392 1,411 1,430 1,433 1,456 1,516 1,518 1,528 1,539 1,541 1,553 1,567 1,570 1,618 1,625 1,629 1,657 1,667 1,682 1,700 1,703 1,709 1,714 1,727 1,745 1,748 1,752 1,761 1,763 1,782 1,783 1,786 1,796 1,800 1,804 1,805 1,807 1,818 1,823 1,865 1,869 1,871 1,872 1,879 1,909 1}
{0 1,4 1,24 1,39 1,55 1,56 1,87 1,95 1,98 1,156 1,174 1,177 1,189 1,207 1,286 1,311 1,329 1,341 1,369 1,385 1,388 1,393 1,402 1,433 1,480 1,483 1,495 1,501 1,502 1,510 1,518 1,525 1,528 1,536 1,541 1,548 1,619 1,642 1,672 1,783 1,792 1,796 1,807 1,849 1,890 1}
{4 1,6 1,39 1,43 1,45 1,46 1,55 1,61 1,83 1,123 1,171 1,177 1,204 1,212 1,228 1,277 1,286 1,300 1,305 1,307 1,310 1,323 1,325 1,328 1,329 1,332 1,335 1,338 1,339 1,344 1,361 1,365 1,369 1,388 1,402 1,428 1,433 1,453 1,459 1,470 1,488 1,491 1,495 1,518 1,521 1,525 1,541 1,586 1,588 1,629 1,647 1,657 1,676 1,693 1,709 1,782 1,783 1,788 1,790 1,796 1,800 1,802 1,807 1,812 1,822 1,834 1,854 1,856 1,863 1,867 1,870 1,883 1,901 1,909 1,911 1,913 1}
{4 1,6 1,11 1,14 1,24 1,28 1,32 1,33 1,39 1,43 1,46 1,51 1,55 1,56 1,61 1,65 1,67 1,82 1,83 1,85 1,87 1,89 1,93 1,108 1,114 1,115 1,117 1,123 1,125 1,135 1,140 1,144 1,152 1,153 1,156 1,168 1,170 1,197 1,204 1,207 1,211 1,221 1,223 1,230 1,231 1,274 1,275 1,276 1,277 1,280 1,281 1,286 1,300 1,302 1,304 1,308 1,326 1,327 1,328 1,329 1,332 1,334 1,339 1,357 1,360 1,361 1,364 1,365 1,369 1,375 1,376 1,382 1,388 1,391 1,392 1,402 1,409 1,425 1,430 1,433 1,437 1,444 1,449 1,453 1,456 1,459 1,463 1,470 1,471 1,491 1,493 1,494 1,496 1,508 1,515 1,516 1,517 1,518 1,519 1,520 1,528 1,536 1,538 1,541 1,548 1,553 1,558 1,567 1,587 1,588 1,601 1,604 1,611 1,625 1,627 1,641 1,642 1,645 1,657 1,658 1,667 1,668 1,669 1,673 1,679 1,682 1,704 1,709 1,714 1,715 1,723 1,727 1,737 1,739 1,745 1,748 1,749 1,752 1,760 1,763 1,768 1,778 1,779 1,782 1,783 1,788 1,789 1,790 1,793 1,796 1,807 1,821 1,834 1,835 1,836 1,837 1,846 1,854 1,859 1,863 1,865 1,867 1,870 1,872 1,875 1,877 1,883 1,885 1,890 1,895 1,896 1,907 1,909 1}
{4 1,18 1,39 1,56 1,61 1,104 1,114 1,116 1,170 1,204 1,207 1,243 1,339 1,361 1,365 1,387 1,388 1,391 1,412 1,478 1,497 1,501 1,518 1,525 1,536 1,549 1,725 1,783 1,790 1,793 1,807 1,854 1,863 1}
{4 1,39 1,49 1,51 1,56 1,97 1,180 1,209 1,271 1,328 1,344 1,345 1,358 1,388 1,448 1,492 1,528 1,577 1,643 1,739 1,783 1,796 1,801 1,807 1,809 1,863 1,867 1,885 1,913 1}
{4 1,18 1,35 1,37 1,39 1,43 1,45 1,55 1,56 1,58 1,61 1,85 1,114 1,117 1,121 1,152 1,177 1,201 1,207 1,209 1,221 1,223 1,229 1,239 1,241 1,243 1,267 1,280 1,285 1,286 1,321 1,327 1,329 1,332 1,336 1,344 1,345 1,357 1,360 1,361 1,363 1,369 1,388 1,391 1,409 1,433 1,437 1,442 1,456 1,489 1,491 1,495 1,497 1,508 1,515 1,516 1,528 1,541 1,548 1,600 1,601 1,641 1,645 1,648 1,650 1,657 1,659 1,682 1,709 1,714 1,718 1,727 1,745 1,748 1,750 1,755 1,763 1,782 1,783 1,784 1,785 1,788 1,789 1,796 1,807 1,819 1,822 1,846 1,849 1,854 1,863 1,865 1,872 1,883 1,896 1}
{4 1,8 1,37 1,39 1,45 1,51 1,54 1,55 1,61 1,77 1,94 1,99 1,164 1,177 1,207 1,210 1,220 1,223 1,234 1,242 1,256 1,271 1,273 1,277 1,286 1,300 1,303 1,314 1,329 1,357 1,361 1,363 1,365 1,369 1,386 1,391 1,402 1,409 1,417 1,439 1,442 1,453 1,457 1,470 1,484 1,495 1,505 1,528 1,536 1,539 1,541 1,545 1,551 1,552 1,600 1,619 1,630 1,652 1,683 1,695 1,709 1,714 1,725 1,763 1,774 1,782 1,783 1,786 1,790 1,796 1,807 1,821 1,823 1,827 1,836 1,859 1,863 1,883 1,890 1,909 1}
{4 1,16 1,18 1,29 1,39 1,55 1,72 1,88 1,122 1,169 1,182 1,204 1,228 1,260 1,286 1,321 1,328 1,332 1,339 1,345 1,348 1,350 1,353 1,361 1,369 1,391 1,464 1,470 1,491 1,507 1,515 1,528 1,643 1,660 1,714 1,716 1,750 1,767 1,782 1,783 1,784 1,785 1,790 1,798 1,800 1,801 1,807 1,809 1,823 1,865 1,875 1,883 1,913 1}
{4 1,24 1,29 1,37 1,39 1,44 1,51 1,56 1,61 1,82 1,196 1,204 1,205 1,210 1,253 1,260 1,275 1,277 1,284 1,286 1,300 1,302 1,303 1,308 1,329 1,339 1,361 1,369 1,375 1,388 1,391 1,402 1,404 1,409 1,416 1,459 1,467 1,470 1,494 1,497 1,518 1,528 1,536 1,539 1,541 1,552 1,570 1,606 1,615 1,630 1,669 1,698 1,714 1,741 1,752 1,763 1,764 1,782 1,783 1,784 1,785 1,788 1,789 1,790 1,791 1,796 1,798 1,807 1,812 1,823 1,834 1,835 1,836 1,849 1,852 1,873 1,875 1,877 1,878 1,885 1,909 1}
{39 1,43 1,45 1,114 1,123 1,204 1,241 1,270 1,361 1,367 1,369 1,382 1,470 1,478 1,490 1,528 1,582 1,663 1,775 1,782 1,783 1,870 1,879 1}
{4 1,32 1,39 1,45 1,104 1,114 1,123 1,270 1,277 1,286 1,300 1,303 1,318 1,329 1,353 1,361 1,369 1,377 1,391 1,440 1,448 1,453 1,470 1,497 1,509 1,523 1,528 1,536 1,537 1,541 1,670 1,685 1,703 1,714 1,715 1,775 1,783 1,796 1,807 1,822 1,870 1,913 1}
{4 1,6 1,11 1,14 1,15 1,19 1,24 1,29 1,37 1,39 1,43 1,45 1,47 1,51 1,55 1,56 1,61 1,70 1,82 1,83 1,85 1,86 1,91 1,92 1,93 1,114 1,115 1,121 1,123 1,128 1,129 1,135 1,140 1,147 1,153 1,168 1,170 1,171 1,179 1,192 1,199 1,204 1,207 1,208 1,210 1,211 1,223 1,228 1,229 1,241 1,243 1,247 1,248 1,250 1,253 1,255 1,267 1,271 1,277 1,279 1,286 1,300 1,310 1,324 1,328 1,329 1,331 1,338 1,344 1,354 1,361 1,363 1,364 1,365 1,368 1,369 1,377 1,382 1,388 1,391 1,402 1,407 1,409 1,410 1,411 1,415 1,416 1,419 1,425 1,427 1,428 1,433 1,440 1,441 1,442 1,453 1,456 1,457 1,458 1,459 1,463 1,468 1,469 1,470 1,478 1,482 1,484 1,491 1,493 1,497 1,505 1,515 1,518 1,521 1,523 1,528 1,532 1,535 1,536 1,537 1,538 1,539 1,541 1,548 1,551 1,553 1,554 1,559 1,560 1,561 1,588 1,590 1,592 1,593 1,600 1,603 1,604 1,605 1,613 1,614 1,617 1,622 1,625 1,627 1,642 1,645 1,657 1,659 1,660 1,667 1,668 1,671 1,672 1,673 1,674 1,679 1,681 1,683 1,684 1,691 1,695 1,702 1,703 1,709 1,714 1,715 1,720 1,746 1,748 1,749 1,751 1,752 1,754 1,755 1,760 1,763 1,764 1,765 1,767 1,777 1,779 1,782 1,783 1,784 1,785 1,786 1,787 1,788 1,789 1,790 1,791 1,792 1,793 1,796 1,799 1,802 1,807 1,812 1,818 1,820 1,822 1,831 1,833 1,834 1,836 1,837 1,838 1,846 1,852 1,854 1,858 1,859 1,861 1,867 1,869 1,870 1,871 1,872 1,875 1,876 1,877 1,879 1,883 1,890 1,893 1,895 1,899 1,904 1,909 1,911 1}
{4 1,24 1,30 1,39 1,51 1,55 1,56 1,61 1,64 1,70 1,75 1,82 1,87 1,96 1,107 1,152 1,168 1,193 1,264 1,271 1,277 1,286 1,305 1,310 1,332 1,342 1,357 1,361 1,369 1,388 1,391 1,399 1,402 1,425 1,434 1,450 1,452 1,453 1,460 1,480 1,490 1,491 1,497 1,506 1,528 1,533 1,536 1,538 1,570 1,601 1,603 1,608 1,657 1,707 1,720 1,724 1,779 1,782 1,783 1,785 1,790 1,796 1,804 1,807 1,812 1,835 1,849 1,867 1,875 1,883 1,895 1,910 1}
{212 1,277 1,305 1,428 1,514 1,657 1,913 1}
{4 1,6 1,14 1,24 1,39 1,43 1,45 1,46 1,51 1,82 1,122 1,123 1,152 1,277 1,308 1,361 1,369 1,433 1,443 1,453 1,463 1,470 1,491 1,497 1,552 1,560 1,627 1,723 1,782 1,783 1,804 1,834 1,851 1,859 1,870 1,883 1,893 1,895 1}
{4 1,6 1,9 1,12 1,37 1,41 1,45 1,46 1,61 1,85 1,114 1,145 1,152 1,172 1,196 1,200 1,207 1,210 1,224 1,233 1,255 1,270 1,277 1,299 1,308 1,321 1,328 1,335 1,357 1,361 1,386 1,391 1,409 1,452 1,453 1,457 1,468 1,491 1,495 1,528 1,536 1,541 1,562 1,593 1,628 1,683 1,719 1,734 1,755 1,763 1,781 1,782 1,783 1,784 1,790 1,796 1,807 1,826 1,828 1,853 1,854 1,858 1,870 1,883 1}
{4 1,42 1,55 1,88 1,181 1,206 1,210 1,228 1,281 1,321 1,327 1,361 1,369 1,388 1,391 1,433 1,515 1,518 1,536 1,537 1,541 1,575 1,638 1,647 1,657 1,659 1,716 1,763 1,782 1,783 1,793 1,796 1,854 1,863 1,875 1,883 1,913 1}
{4 1,6 1,39 1,51 1,59 1,70 1,152 1,213 1,276 1,321 1,361 1,365 1,369 1,386 1,388 1,390 1,391 1,409 1,470 1,491 1,528 1,536 1,538 1,541 1,627 1,632 1,646 1,709 1,714 1,716 1,782 1,783 1,786 1,790 1,796 1,807 1,834 1,868 1,872 1,883 1,893 1}
{9 1,24 1,39 1,51 1,55 1,114 1,152 1,159 1,178 1,196 1,200 1,203 1,204 1,210 1,232 1,277 1,283 1,329 1,361 1,362 1,369 1,388 1,391 1,402 1,417 1,433 1,437 1,450 1,506 1,508 1,515 1,518 1,528 1,536 1,538 1,541 1,562 1,587 1,627 1,642 1,657 1,659 1,672 1,695 1,714 1,750 1,763 1,782 1,783 1,784 1,788 1,798 1,807 1,834 1,859 1,875 1,877 1,883 1,884 1,890 1,904 1,909 1}
{6 1,43 1,45 1,46 1,55 1,171 1,177 1,212 1,228 1,323 1,325 1,328 1,332 1,335 1,361 1,369 1,388 1,491 1,586 1,676 1,783 1,796 1,807 1,811 1,856 1,867 1,883 1,901 1,913 1}
{4 1,6 1,18 1,29 1,37 1,39 1,41 1,43 1,45 1,47 1,51 1,54 1,56 1,61 1,82 1,83 1,85 1,87 1,88 1,89 1,91 1,94 1,115 1,124 1,153 1,157 1,159 1,168 1,169 1,177 1,204 1,207 1,210 1,235 1,245 1,267 1,270 1,271 1,275 1,277 1,280 1,286 1,302 1,313 1,318 1,321 1,325 1,328 1,329 1,332 1,335 1,336 1,342 1,355 1,361 1,365 1,369 1,386 1,388 1,391 1,402 1,409 1,411 1,417 1,419 1,433 1,441 1,443 1,449 1,450 1,451 1,453 1,454 1,457 1,470 1,491 1,497 1,503 1,508 1,512 1,515 1,516 1,518 1,521 1,528 1,529 1,536 1,538 1,539 1,541 1,548 1,552 1,553 1,567 1,598 1,600 1,606 1,615 1,626 1,631 1,638 1,642 1,644 1,645 1,647 1,648 1,657 1,659 1,666 1,668 1,682 1,695 1,696 1,701 1,714 1,716 1,737 1,746 1,750 1,755 1,763 1,782 1,783 1,786 1,787 1,790 1,796 1,804 1,807 1,809 1,813 1,814 1,823 1,824 1,825 1,828 1,834 1,836 1,837 1,840 1,846 1,854 1,859 1,862 1,864 1,865 1,867 1,869 1,870 1,872 1,875 1,876 1,879 1,883 1,885 1,895 1,903 1,904 1,907 1}
{4 1,37 1,44 1,61 1,82 1,114 1,158 1,168 1,234 1,277 1,300 1,361 1,365 1,369 1,370 1,388 1,391 1,409 1,425 1,433 1,453 1,470 1,493 1,505 1,528 1,536 1,538 1,541 1,543 1,559 1,588 1,592 1,647 1,725 1,783 1,784 1,796 1,807 1,822 1,879 1,895 1}
{4 1,6 1,24 1,39 1,51 1,55 1,58 1,114 1,117 1,123 1,173 1,207 1,208 1,212 1,260 1,277 1,282 1,305 1,317 1,361 1,368 1,369 1,399 1,428 1,491 1,493 1,510 1,528 1,534 1,656 1,657 1,763 1,767 1,769 1,782 1,783 1,786 1,807 1,823 1,837 1,852 1,863 1,882 1,909 1,913 1}
{4 1,37 1,39 1,55 1,74 1,108 1,118 1,139 1,168 1,217 1,228 1,277 1,298 1,301 1,309 1,311 1,326 1,328 1,345 1,369 1,381 1,388 1,391 1,470 1,499 1,501 1,528 1,529 1,538 1,578 1,587 1,692 1,703 1,706 1,715 1,757 1,783 1,807 1,812 1,883 1}
{4 1,24 1,30 1,37 1,39 1,51 1,55 1,56 1,61 1,64 1,70 1,75 1,82 1,87 1,96 1,114 1,152 1,153 1,158 1,168 1,177 1,193 1,210 1,239 1,264 1,271 1,277 1,286 1,294 1,300 1,305 1,308 1,310 1,328 1,329 1,332 1,338 1,342 1,345 1,357 1,361 1,369 1,388 1,391 1,402 1,425 1,428 1,433 1,434 1,452 1,453 1,460 1,480 1,488 1,490 1,491 1,497 1,498 1,506 1,508 1,528 1,529 1,533 1,535 1,536 1,538 1,541 1,570 1,583 1,601 1,603 1,607 1,608 1,615 1,653 1,657 1,695 1,707 1,714 1,720 1,721 1,752 1,763 1,779 1,782 1,783 1,785 1,788 1,790 1,796 1,804 1,807 1,811 1,812 1,829 1,835 1,849 1,859 1,867 1,870 1,875 1,879 1,883 1,895 1,904 1,909 1,910 1}
{4 1,15 1,37 1,39 1,41 1,43 1,46 1,51 1,56 1,61 1,80 1,82 1,83 1,85 1,109 1,114 1,116 1,141 1,148 1,153 1,168 1,173 1,195 1,203 1,204 1,228 1,233 1,245 1,250 1,266 1,277 1,308 1,310 1,313 1,317 1,324 1,328 1,329 1,350 1,357 1,361 1,365 1,369 1,372 1,388 1,391 1,425 1,427 1,433 1,441 1,453 1,455 1,476 1,491 1,493 1,496 1,497 1,508 1,515 1,518 1,528 1,529 1,538 1,539 1,541 1,552 1,553 1,577 1,583 1,588 1,591 1,625 1,630 1,657 1,703 1,709 1,714 1,719 1,739 1,740 1,746 1,769 1,770 1,779 1,782 1,783 1,784 1,785 1,786 1,789 1,790 1,796 1,804 1,807 1,809 1,826 1,829 1,831 1,833 1,834 1,846 1,854 1,863 1,868 1,869 1,877 1,879 1,880 1,881 1,883 1,885 1,903 1,904 1,913 1}
{4 1,14 1,29 1,39 1,41 1,45 1,51 1,56 1,82 1,94 1,100 1,123 1,130 1,152 1,157 1,197 1,201 1,211 1,214 1,222 1,227 1,233 1,242 1,271 1,277 1,286 1,308 1,311 1,328 1,345 1,355 1,361 1,365 1,388 1,396 1,429 1,430 1,455 1,470 1,471 1,515 1,518 1,528 1,538 1,541 1,548 1,563 1,591 1,603 1,660 1,669 1,691 1,695 1,709 1,775 1,777 1,782 1,783 1,788 1,796 1,841 1,867 1,869 1,879 1,909 1}
{4 1,6 1,39 1,51 1,114 1,115 1,153 1,228 1,245 1,249 1,286 1,293 1,306 1,329 1,331 1,361 1,364 1,388 1,433 1,453 1,518 1,528 1,538 1,539 1,541 1,553 1,568 1,582 1,627 1,691 1,697 1,710 1,725 1,765 1,782 1,783 1,785 1,790 1,792 1,804 1,823 1,845 1,849 1,867 1,869 1,909 1}
{4 1,39 1,61 1,76 1,93 1,123 1,286 1,294 1,295 1,302 1,305 1,313 1,343 1,352 1,354 1,361 1,369 1,391 1,468 1,530 1,536 1,541 1,552 1,567 1,577 1,656 1,670 1,675 1,679 1,714 1,783 1,785 1,790 1,793 1,807 1,823 1,834 1,854 1,860 1,865 1,867 1,873 1,879 1,913 1}
{4 1,39 1,71 1,93 1,103 1,113 1,152 1,160 1,205 1,222 1,228 1,243 1,286 1,328 1,329 1,361 1,365 1,386 1,396 1,455 1,470 1,497 1,505 1,515 1,554 1,617 1,657 1,695 1,705 1,752 1,763 1,764 1,782 1,783 1,784 1,790 1,796 1,807 1,865 1,870 1,872 1,877 1,883 1,895 1,896 1,909 1,911 1}
{4 1,6 1,32 1,39 1,49 1,69 1,88 1,97 1,114 1,171 1,176 1,178 1,182 1,183 1,189 1,204 1,212 1,235 1,254 1,277 1,286 1,290 1,311 1,319 1,321 1,328 1,361 1,369 1,376 1,388 1,391 1,400 1,402 1,419 1,444 1,447 1,471 1,490 1,501 1,518 1,521 1,528 1,529 1,534 1,536 1,541 1,609 1,623 1,654 1,657 1,679 1,719 1,739 1,782 1,783 1,793 1,796 1,807 1,848 1,867 1,869 1,879 1,883 1,909 1}
{45 1,207 1,307 1,329 1,332 1,357 1,388 1,441 1,536 1,552 1,783 1,807 1,913 1}
{4 1,6 1,24 1,37 1,39 1,43 1,46 1,51 1,58 1,70 1,82 1,83 1,86 1,87 1,88 1,93 1,114 1,131 1,144 1,153 1,168 1,204 1,207 1,210 1,221 1,223 1,231 1,275 1,276 1,277 1,304 1,328 1,329 1,332 1,358 1,360 1,361 1,365 1,369 1,375 1,377 1,382 1,388 1,391 1,433 1,471 1,493 1,494 1,515 1,516 1,518 1,520 1,528 1,536 1,538 1,541 1,548 1,553 1,567 1,604 1,611 1,625 1,641 1,642 1,657 1,667 1,669 1,679 1,693 1,702 1,714 1,721 1,739 1,748 1,760 1,763 1,782 1,783 1,785 1,790 1,793 1,796 1,807 1,836 1,853 1,854 1,859 1,865 1,867 1,870 1,872 1,875 1,883 1,890 1,895 1,909 1,911 1}
{4 1,6 1,37 1,39 1,42 1,51 1,56 1,61 1,82 1,87 1,114 1,123 1,163 1,177 1,222 1,225 1,277 1,300 1,345 1,361 1,363 1,364 1,365 1,388 1,391 1,433 1,444 1,453 1,455 1,470 1,490 1,495 1,497 1,586 1,587 1,617 1,672 1,705 1,714 1,719 1,763 1,782 1,783 1,807 1,833 1,849 1,854 1,869 1,883 1,909 1}
{4 1,39 1,51 1,114 1,172 1,203 1,228 1,252 1,328 1,361 1,388 1,391 1,476 1,515 1,518 1,528 1,552 1,553 1,719 1,769 1,781 1,782 1,783 1,807 1,826 1,872 1,880 1,882 1,883 1,895 1,911 1,913 1}
{39 1,51 1,55 1,70 1,82 1,126 1,151 1,213 1,228 1,361 1,369 1,386 1,388 1,390 1,491 1,536 1,538 1,541 1,578 1,716 1,782 1,783 1,786 1,790 1,807 1,834 1,868 1,872 1}
{4 1,6 1,43 1,82 1,114 1,302 1,361 1,388 1,391 1,407 1,470 1,497 1,510 1,521 1,528 1,647 1,685 1,709 1,719 1,781 1,782 1,796 1,807 1,823 1,861 1}
{4 1,24 1,39 1,72 1,105 1,264 1,271 1,282 1,295 1,308 1,329 1,361 1,388 1,391 1,528 1,548 1,553 1,574 1,575 1,577 1,583 1,635 1,643 1,677 1,709 1,724 1,735 1,739 1,782 1,783 1,796 1,801 1,809 1,843 1,865 1,869 1,874 1,879 1,880 1,885 1,887 1,913 1}
{4 1,6 1,55 1,74 1,82 1,108 1,114 1,118 1,123 1,139 1,217 1,228 1,231 1,285 1,298 1,309 1,321 1,329 1,332 1,345 1,361 1,369 1,377 1,381 1,388 1,391 1,441 1,453 1,468 1,483 1,499 1,505 1,508 1,528 1,541 1,567 1,578 1,657 1,679 1,692 1,703 1,706 1,757 1,763 1,776 1,782 1,783 1,793 1,799 1,807 1,812 1,813 1,853 1,877 1,879 1,895 1}
{4 1,6 1,14 1,24 1,29 1,37 1,39 1,41 1,49 1,51 1,56 1,61 1,82 1,85 1,86 1,106 1,112 1,114 1,115 1,168 1,183 1,223 1,226 1,235 1,271 1,273 1,274 1,277 1,286 1,288 1,329 1,342 1,355 1,358 1,369 1,373 1,386 1,388 1,391 1,402 1,408 1,420 1,421 1,434 1,438 1,466 1,484 1,485 1,486 1,521 1,528 1,529 1,536 1,541 1,542 1,543 1,553 1,580 1,590 1,591 1,597 1,620 1,657 1,660 1,663 1,664 1,677 1,694 1,704 1,712 1,718 1,725 1,726 1,736 1,783 1,795 1,796 1,801 1,804 1,807 1,816 1,823 1,824 1,835 1,836 1,837 1,843 1,847 1,851 1,854 1,855 1,867 1,872 1,879 1,883 1,884 1,893 1,900 1}
{180 1,388 1,913 1}
{4 1,24 1,29 1,39 1,51 1,55 1,56 1,74 1,82 1,114 1,118 1,123 1,139 1,217 1,228 1,230 1,298 1,301 1,309 1,333 1,369 1,381 1,387 1,388 1,391 1,431 1,499 1,528 1,563 1,578 1,692 1,706 1,757 1,782 1,783 1,807 1,812 1,836 1,841 1,869 1}
{4 1,23 1,34 1,39 1,43 1,45 1,52 1,55 1,56 1,114 1,123 1,204 1,228 1,241 1,270 1,311 1,328 1,342 1,361 1,367 1,369 1,382 1,391 1,402 1,409 1,453 1,470 1,477 1,478 1,490 1,501 1,518 1,522 1,528 1,548 1,582 1,663 1,725 1,755 1,775 1,782 1,783 1,863 1,867 1,870 1,879 1}
{4 1,6 1,15 1,24 1,39 1,45 1,51 1,55 1,56 1,114 1,117 1,151 1,172 1,177 1,181 1,196 1,203 1,204 1,210 1,218 1,228 1,243 1,252 1,277 1,294 1,308 1,321 1,328 1,361 1,369 1,388 1,391 1,402 1,409 1,428 1,470 1,476 1,515 1,518 1,520 1,521 1,525 1,528 1,534 1,552 1,553 1,567 1,630 1,634 1,636 1,649 1,657 1,686 1,719 1,733 1,739 1,763 1,769 1,781 1,782 1,783 1,784 1,785 1,790 1,793 1,796 1,799 1,807 1,826 1,846 1,859 1,867 1,872 1,880 1,882 1,883 1,895 1,898 1,903 1,909 1,911 1,913 1}
{4 1,6 1,17 1,24 1,37 1,39 1,51 1,56 1,61 1,82 1,103 1,106 1,108 1,114 1,123 1,130 1,142 1,143 1,169 1,182 1,210 1,228 1,239 1,243 1,246 1,269 1,277 1,279 1,286 1,329 1,342 1,361 1,365 1,369 1,388 1,390 1,391 1,402 1,411 1,427 1,430 1,454 1,456 1,496 1,505 1,518 1,520 1,521 1,528 1,538 1,539 1,541 1,567 1,603 1,629 1,631 1,638 1,657 1,667 1,700 1,702 1,709 1,714 1,760 1,763 1,782 1,783 1,785 1,786 1,790 1,791 1,796 1,798 1,800 1,805 1,807 1,823 1,833 1,837 1,854 1,857 1,868 1,869 1,871 1,875 1,879 1,883 1,886 1,909 1,910 1}
{4 1,46 1,51 1,61 1,82 1,83 1,113 1,123 1,150 1,152 1,153 1,158 1,210 1,228 1,239 1,245 1,271 1,277 1,286 1,294 1,300 1,303 1,310 1,329 1,362 1,369 1,388 1,402 1,428 1,433 1,483 1,488 1,529 1,534 1,541 1,583 1,657 1,695 1,752 1,763 1,783 1,788 1,804 1,807 1,827 1,859 1,867 1,870 1,895 1,904 1,909 1}
{4 1,27 1,39 1,55 1,114 1,228 1,262 1,286 1,303 1,317 1,320 1,328 1,357 1,359 1,361 1,369 1,388 1,399 1,402 1,416 1,426 1,435 1,436 1,437 1,453 1,470 1,518 1,528 1,529 1,619 1,624 1,656 1,679 1,709 1,744 1,782 1,783 1,796 1,859 1,872 1,900 1,913 1}
{4 1,24 1,31 1,39 1,41 1,43 1,51 1,55 1,59 1,70 1,74 1,82 1,83 1,114 1,115 1,118 1,123 1,139 1,152 1,153 1,171 1,204 1,210 1,217 1,222 1,228 1,242 1,243 1,267 1,270 1,286 1,293 1,298 1,300 1,308 1,309 1,329 1,345 1,365 1,369 1,381 1,382 1,386 1,388 1,389 1,391 1,413 1,426 1,433 1,474 1,491 1,493 1,495 1,499 1,509 1,515 1,518 1,520 1,521 1,528 1,538 1,539 1,567 1,569 1,578 1,601 1,603 1,631 1,637 1,650 1,674 1,692 1,706 1,709 1,714 1,720 1,757 1,762 1,763 1,782 1,783 1,785 1,787 1,788 1,790 1,792 1,793 1,796 1,807 1,812 1,838 1,841 1,842 1,849 1,852 1,853 1,854 1,857 1,875 1,877 1,883 1,892 1,909 1}
{4 1,6 1,55 1,61 1,82 1,94 1,96 1,114 1,166 1,168 1,177 1,183 1,184 1,204 1,228 1,232 1,239 1,271 1,273 1,277 1,305 1,361 1,365 1,369 1,389 1,391 1,392 1,402 1,415 1,425 1,433 1,449 1,457 1,466 1,481 1,490 1,491 1,497 1,528 1,533 1,536 1,570 1,615 1,683 1,714 1,749 1,750 1,763 1,779 1,782 1,783 1,796 1,807 1,847 1,851 1,858 1,864 1,865 1,875 1,878 1,891 1,895 1,909 1,911 1}
{61 1,76 1,82 1,151 1,171 1,181 1,207 1,228 1,277 1,357 1,391 1,433 1,472 1,496 1,518 1,528 1,538 1,627 1,783 1,790 1,807 1,831 1,872 1,913 1}
{29 1,55 1,74 1,115 1,118 1,139 1,152 1,168 1,217 1,228 1,234 1,298 1,303 1,309 1,329 1,361 1,365 1,369 1,378 1,381 1,388 1,391 1,442 1,470 1,473 1,497 1,499 1,528 1,536 1,578 1,587 1,588 1,601 1,633 1,670 1,681 1,692 1,695 1,706 1,709 1,714 1,715 1,745 1,757 1,782 1,783 1,789 1,807 1,812 1,854 1,888 1,895 1,911 1}
{4 1,23 1,39 1,43 1,56 1,77 1,80 1,82 1,96 1,159 1,170 1,204 1,228 1,277 1,300 1,305 1,312 1,329 1,342 1,361 1,365 1,388 1,402 1,416 1,428 1,453 1,457 1,469 1,472 1,477 1,478 1,491 1,516 1,518 1,522 1,528 1,536 1,541 1,547 1,548 1,554 1,582 1,589 1,601 1,640 1,648 1,658 1,690 1,695 1,707 1,710 1,752 1,783 1,785 1,788 1,792 1,793 1,796 1,807 1,816 1,834 1,895 1}
{4 1,15 1,39 1,51 1,61 1,78 1,82 1,88 1,151 1,171 1,181 1,223 1,228 1,294 1,303 1,307 1,321 1,349 1,361 1,369 1,386 1,402 1,423 1,460 1,528 1,537 1,538 1,604 1,624 1,655 1,656 1,657 1,765 1,769 1,782 1,783 1,784 1,786 1,793 1,807 1,809 1,823 1,831 1,834 1,854 1,913 1}
{4 1,9 1,37 1,39 1,51 1,55 1,74 1,82 1,94 1,107 1,118 1,123 1,139 1,152 1,166 1,200 1,211 1,217 1,223 1,228 1,258 1,298 1,308 1,309 1,369 1,381 1,388 1,389 1,391 1,402 1,499 1,506 1,528 1,578 1,620 1,628 1,692 1,706 1,709 1,714 1,757 1,763 1,783 1,786 1,807 1,812 1,867 1,877 1,883 1}
{4 1,6 1,28 1,29 1,37 1,39 1,44 1,45 1,52 1,55 1,65 1,77 1,82 1,105 1,114 1,115 1,149 1,160 1,171 1,196 1,208 1,228 1,233 1,234 1,241 1,249 1,271 1,277 1,300 1,324 1,328 1,329 1,345 1,361 1,365 1,369 1,385 1,391 1,404 1,409 1,416 1,428 1,433 1,439 1,459 1,464 1,470 1,515 1,528 1,538 1,541 1,546 1,552 1,567 1,573 1,595 1,617 1,625 1,646 1,671 1,672 1,725 1,761 1,763 1,768 1,783 1,788 1,793 1,807 1,823 1,842 1,843 1,854 1,858 1,872 1,875 1,895 1}
{55 1,61 1,82 1,88 1,123 1,151 1,171 1,181 1,223 1,228 1,294 1,303 1,307 1,321 1,361 1,369 1,386 1,402 1,423 1,528 1,538 1,541 1,655 1,656 1,657 1,765 1,783 1,786 1,807 1,809 1,824 1,831 1,834 1,913 1}
{4 1,55 1,63 1,70 1,74 1,82 1,114 1,118 1,139 1,171 1,207 1,217 1,218 1,228 1,236 1,284 1,286 1,298 1,300 1,309 1,329 1,342 1,357 1,361 1,369 1,381 1,388 1,391 1,392 1,433 1,470 1,499 1,518 1,528 1,578 1,644 1,655 1,657 1,692 1,706 1,721 1,757 1,763 1,782 1,783 1,800 1,807 1,812 1,879 1,887 1,895 1}
{4 1,5 1,11 1,39 1,55 1,61 1,75 1,78 1,82 1,86 1,87 1,114 1,117 1,123 1,128 1,135 1,156 1,169 1,199 1,204 1,207 1,243 1,277 1,280 1,286 1,296 1,305 1,308 1,329 1,361 1,365 1,369 1,375 1,386 1,388 1,391 1,402 1,425 1,430 1,434 1,437 1,452 1,458 1,478 1,480 1,481 1,488 1,490 1,491 1,493 1,512 1,518 1,536 1,538 1,539 1,541 1,570 1,592 1,595 1,601 1,614 1,615 1,623 1,625 1,627 1,629 1,631 1,647 1,657 1,668 1,673 1,691 1,695 1,700 1,702 1,703 1,714 1,715 1,725 1,750 1,763 1,779 1,782 1,783 1,788 1,790 1,793 1,796 1,798 1,807 1,832 1,836 1,842 1,846 1,854 1,859 1,863 1,867 1,869 1,877 1,879 1,883 1,887 1,895 1,903 1,904 1,909 1,911 1}
{55 1,76 1,82 1,151 1,171 1,181 1,207 1,228 1,277 1,357 1,369 1,391 1,433 1,472 1,496 1,518 1,536 1,538 1,541 1,627 1,782 1,783 1,790 1,807 1,872 1,880 1,909 1,913 1}
{4 1,7 1,10 1,14 1,16 1,29 1,37 1,39 1,43 1,45 1,48 1,49 1,51 1,56 1,61 1,82 1,98 1,100 1,106 1,115 1,122 1,123 1,126 1,140 1,148 1,152 1,164 1,170 1,175 1,179 1,220 1,222 1,234 1,235 1,242 1,277 1,286 1,289 1,299 1,308 1,315 1,316 1,334 1,361 1,369 1,374 1,377 1,388 1,435 1,436 1,443 1,454 1,461 1,468 1,473 1,474 1,491 1,493 1,496 1,497 1,500 1,510 1,515 1,516 1,518 1,528 1,536 1,538 1,539 1,552 1,567 1,580 1,593 1,594 1,611 1,614 1,632 1,671 1,683 1,685 1,687 1,695 1,723 1,771 1,779 1,782 1,783 1,796 1,804 1,807 1,824 1,833 1,834 1,851 1,858 1,870 1,872 1,879 1,883 1,893 1,906 1,911 1}
{4 1,31 1,39 1,51 1,55 1,56 1,82 1,85 1,152 1,183 1,184 1,195 1,218 1,271 1,273 1,277 1,307 1,321 1,329 1,358 1,361 1,365 1,369 1,388 1,389 1,391 1,415 1,449 1,497 1,505 1,521 1,528 1,536 1,541 1,543 1,567 1,599 1,612 1,641 1,646 1,647 1,652 1,657 1,695 1,709 1,714 1,746 1,754 1,763 1,780 1,782 1,783 1,788 1,796 1,800 1,807 1,809 1,849 1,851 1,854 1,865 1,872 1,878 1,879 1,895 1,900 1,909 1,911 1}
{4 1,24 1,39 1,51 1,55 1,56 1,61 1,72 1,92 1,99 1,103 1,105 1,107 1,123 1,132 1,136 1,144 1,150 1,182 1,203 1,223 1,226 1,228 1,264 1,271 1,277 1,282 1,286 1,292 1,295 1,308 1,323 1,328 1,329 1,332 1,361 1,369 1,388 1,391 1,441 1,453 1,502 1,525 1,528 1,541 1,548 1,553 1,555 1,574 1,575 1,577 1,583 1,635 1,643 1,660 1,677 1,709 1,724 1,735 1,739 1,779 1,782 1,783 1,785 1,796 1,801 1,807 1,809 1,836 1,843 1,865 1,869 1,874 1,879 1,880 1,883 1,885 1,886 1,887 1,890 1,893 1,901 1,903 1,913 1}
{37 1,82 1,123 1,211 1,277 1,518 1,528 1,694 1,867 1,879 1}
{24 1,39 1,43 1,55 1,57 1,59 1,62 1,82 1,105 1,107 1,117 1,123 1,132 1,181 1,183 1,184 1,224 1,249 1,257 1,258 1,259 1,271 1,273 1,308 1,361 1,365 1,369 1,391 1,415 1,431 1,438 1,453 1,497 1,498 1,502 1,509 1,510 1,525 1,528 1,538 1,546 1,555 1,598 1,612 1,630 1,657 1,672 1,679 1,696 1,709 1,710 1,747 1,773 1,777 1,783 1,785 1,790 1,792 1,793 1,796 1,804 1,805 1,807 1,825 1,830 1,851 1,852 1,855 1,860 1,865 1,866 1,869 1,877 1,878 1,879 1,883 1,893 1,895 1,908 1,909 1,911 1}
{4 1,6 1,39 1,51 1,55 1,68 1,88 1,114 1,136 1,170 1,208 1,228 1,308 1,325 1,329 1,361 1,369 1,388 1,417 1,470 1,478 1,528 1,533 1,539 1,580 1,646 1,657 1,676 1,677 1,703 1,763 1,769 1,782 1,783 1,784 1,790 1,796 1,834 1,867 1,872 1,913 1}
{4 1,12 1,29 1,32 1,39 1,45 1,82 1,100 1,123 1,133 1,168 1,171 1,230 1,233 1,239 1,277 1,305 1,361 1,365 1,377 1,388 1,407 1,436 1,441 1,444 1,474 1,497 1,518 1,528 1,536 1,541 1,587 1,591 1,714 1,776 1,779 1,783 1,796 1,807 1,818 1,895 1,909 1}
{4 1,39 1,56 1,99 1,114 1,212 1,214 1,361 1,369 1,391 1,409 1,417 1,468 1,512 1,513 1,528 1,536 1,657 1,666 1,672 1,693 1,725 1,738 1,782 1,783 1,860 1,875 1,879 1,903 1}
{4 1,14 1,16 1,17 1,37 1,39 1,45 1,51 1,54 1,55 1,56 1,61 1,70 1,71 1,76 1,82 1,85 1,86 1,94 1,95 1,114 1,115 1,117 1,122 1,123 1,130 1,153 1,154 1,168 1,171 1,177 1,204 1,207 1,210 1,212 1,224 1,228 1,233 1,235 1,240 1,244 1,267 1,270 1,271 1,277 1,279 1,286 1,294 1,295 1,300 1,301 1,303 1,307 1,308 1,317 1,321 1,322 1,326 1,328 1,329 1,332 1,344 1,345 1,357 1,361 1,365 1,369 1,378 1,386 1,388 1,391 1,399 1,402 1,417 1,428 1,433 1,439 1,445 1,448 1,449 1,450 1,454 1,463 1,468 1,470 1,481 1,491 1,492 1,497 1,512 1,518 1,521 1,528 1,529 1,536 1,538 1,541 1,569 1,574 1,576 1,600 1,630 1,634 1,647 1,655 1,656 1,657 1,676 1,681 1,691 1,709 1,722 1,734 1,739 1,740 1,746 1,754 1,763 1,764 1,769 1,773 1,779 1,782 1,783 1,784 1,786 1,790 1,793 1,796 1,802 1,804 1,807 1,809 1,816 1,833 1,834 1,837 1,849 1,851 1,854 1,863 1,864 1,867 1,869 1,875 1,879 1,882 1,883 1,887 1,895 1,903 1,904 1,909 1,913 1}
{8 1,43 1,44 1,126 1,164 1,207 1,334 1,361 1,365 1,369 1,377 1,388 1,409 1,461 1,528 1,592 1,688 1,780 1,783 1,788 1,879 1,895 1}
{4 1,39 1,51 1,60 1,61 1,77 1,115 1,152 1,156 1,166 1,170 1,177 1,210 1,234 1,243 1,250 1,265 1,277 1,286 1,328 1,353 1,369 1,380 1,385 1,388 1,391 1,413 1,435 1,455 1,502 1,528 1,529 1,531 1,541 1,567 1,573 1,587 1,591 1,619 1,620 1,642 1,649 1,661 1,673 1,683 1,689 1,691 1,709 1,715 1,763 1,782 1,783 1,788 1,789 1,796 1,807 1,841 1,872 1}
{4 1,14 1,24 1,37 1,39 1,51 1,56 1,61 1,70 1,75 1,76 1,82 1,85 1,92 1,102 1,115 1,116 1,121 1,122 1,132 1,141 1,153 1,168 1,180 1,213 1,218 1,235 1,243 1,252 1,271 1,277 1,281 1,286 1,294 1,303 1,304 1,310 1,314 1,320 1,321 1,329 1,332 1,345 1,347 1,349 1,350 1,359 1,361 1,369 1,386 1,388 1,389 1,391 1,398 1,403 1,409 1,412 1,417 1,418 1,419 1,422 1,423 1,426 1,435 1,439 1,447 1,453 1,462 1,463 1,476 1,478 1,496 1,502 1,509 1,512 1,521 1,528 1,529 1,536 1,538 1,552 1,555 1,574 1,577 1,579 1,583 1,619 1,624 1,630 1,633 1,636 1,647 1,655 1,656 1,657 1,676 1,677 1,694 1,695 1,696 1,704 1,709 1,713 1,740 1,745 1,746 1,763 1,764 1,769 1,779 1,782 1,783 1,784 1,786 1,790 1,793 1,795 1,799 1,801 1,807 1,809 1,812 1,823 1,834 1,851 1,854 1,860 1,863 1,867 1,869 1,875 1,880 1,883 1,890 1,900 1,903 1,908 1,913 1}
{177 1,234 1,277 1,329 1,361 1,365 1,369 1,391 1,558 1,625 1,717 1,783 1,804 1,807 1,824 1,909 1}
{4 1,37 1,39 1,49 1,51 1,56 1,61 1,82 1,87 1,115 1,170 1,178 1,193 1,236 1,268 1,271 1,277 1,281 1,286 1,312 1,342 1,369 1,371 1,377 1,388 1,421 1,429 1,486 1,503 1,509 1,515 1,528 1,536 1,548 1,560 1,596 1,598 1,657 1,663 1,686 1,701 1,723 1,725 1,754 1,762 1,771 1,782 1,783 1,801 1,807 1,817 1,823 1,830 1,839 1,840 1,860 1,863 1,872 1,879 1,883 1}
{4 1,6 1,14 1,15 1,17 1,37 1,39 1,43 1,55 1,56 1,61 1,71 1,82 1,85 1,87 1,88 1,91 1,92 1,94 1,114 1,115 1,123 1,130 1,136 1,168 1,177 1,187 1,196 1,203 1,204 1,206 1,212 1,228 1,235 1,239 1,242 1,243 1,244 1,271 1,277 1,286 1,295 1,300 1,303 1,308 1,313 1,321 1,329 1,331 1,332 1,345 1,350 1,353 1,361 1,364 1,365 1,369 1,386 1,388 1,391 1,402 1,407 1,425 1,433 1,450 1,451 1,454 1,470 1,478 1,491 1,497 1,506 1,510 1,515 1,521 1,528 1,530 1,538 1,539 1,541 1,545 1,552 1,555 1,567 1,575 1,577 1,585 1,601 1,618 1,634 1,639 1,655 1,656 1,657 1,659 1,660 1,667 1,668 1,676 1,679 1,690 1,691 1,694 1,703 1,709 1,714 1,715 1,716 1,746 1,752 1,754 1,755 1,763 1,766 1,769 1,770 1,779 1,782 1,783 1,784 1,785 1,788 1,789 1,790 1,791 1,793 1,796 1,799 1,804 1,807 1,811 1,836 1,846 1,849 1,865 1,867 1,872 1,873 1,875 1,879 1,880 1,881 1,883 1,895 1,903 1,904 1,909 1,910 1,913 1}
{1 1,4 1,10 1,39 1,43 1,44 1,51 1,55 1,115 1,126 1,164 1,183 1,204 1,207 1,228 1,230 1,243 1,245 1,260 1,277 1,299 1,334 1,361 1,365 1,369 1,377 1,388 1,391 1,409 1,461 1,473 1,474 1,493 1,495 1,518 1,528 1,549 1,559 1,592 1,642 1,688 1,705 1,783 1,788 1,789 1,796 1,807 1,831 1,859 1,867 1,871 1,879 1,895 1}
{0 1,1 1,2 1,3 1,4 1,6 1,32 1,39 1,49 1,55 1,69 1,88 1,114 1,117 1,171 1,176 1,178 1,182 1,183 1,204 1,235 1,245 1,252 1,277 1,286 1,290 1,311 1,321 1,342 1,358 1,361 1,365 1,369 1,388 1,391 1,400 1,402 1,417 1,419 1,444 1,447 1,453 1,468 1,471 1,481 1,485 1,490 1,501 1,505 1,509 1,514 1,515 1,518 1,528 1,529 1,536 1,539 1,541 1,542 1,550 1,559 1,610 1,623 1,629 1,654 1,657 1,694 1,709 1,782 1,783 1,786 1,788 1,796 1,802 1,804 1,807 1,848 1,869 1,879 1,883 1,909 1}
{4 1,6 1,32 1,45 1,55 1,131 1,171 1,224 1,228 1,242 1,261 1,271 1,328 1,329 1,353 1,361 1,365 1,369 1,376 1,402 1,493 1,510 1,528 1,587 1,655 1,676 1,682 1,683 1,700 1,740 1,782 1,783 1,796 1,807 1,907 1,909 1,913 1}
{4 1,6 1,37 1,39 1,42 1,51 1,55 1,56 1,61 1,74 1,82 1,88 1,113 1,114 1,115 1,123 1,128 1,152 1,171 1,177 1,204 1,210 1,228 1,245 1,253 1,277 1,280 1,286 1,298 1,309 1,325 1,329 1,332 1,336 1,358 1,361 1,365 1,369 1,386 1,388 1,390 1,391 1,402 1,404 1,417 1,422 1,425 1,431 1,433 1,453 1,457 1,458 1,463 1,470 1,471 1,474 1,478 1,482 1,488 1,493 1,497 1,514 1,515 1,517 1,518 1,519 1,528 1,536 1,541 1,578 1,587 1,588 1,627 1,628 1,650 1,660 1,668 1,673 1,674 1,681 1,684 1,709 1,714 1,759 1,763 1,765 1,782 1,783 1,788 1,789 1,790 1,796 1,804 1,807 1,818 1,849 1,854 1,863 1,867 1,870 1,872 1,875 1,883 1,887 1,909 1,911 1}
{4 1,37 1,45 1,46 1,55 1,82 1,95 1,98 1,114 1,172 1,196 1,204 1,210 1,213 1,224 1,228 1,233 1,277 1,290 1,299 1,311 1,319 1,335 1,341 1,361 1,369 1,385 1,386 1,388 1,391 1,399 1,404 1,409 1,450 1,453 1,458 1,488 1,490 1,510 1,518 1,528 1,536 1,552 1,565 1,567 1,615 1,625 1,628 1,647 1,657 1,681 1,683 1,686 1,714 1,719 1,726 1,755 1,763 1,782 1,783 1,784 1,788 1,790 1,793 1,796 1,807 1,826 1,833 1,840 1,854 1,870 1,875 1,883 1,890 1,895 1,909 1}
{4 1,16 1,39 1,51 1,55 1,61 1,87 1,109 1,114 1,173 1,195 1,228 1,277 1,286 1,295 1,329 1,357 1,361 1,365 1,369 1,388 1,391 1,425 1,453 1,495 1,518 1,528 1,552 1,630 1,634 1,657 1,666 1,686 1,709 1,719 1,733 1,740 1,746 1,765 1,769 1,782 1,783 1,785 1,790 1,796 1,817 1,833 1,834 1,854 1,863 1,877 1,885 1,901 1,913 1}
{39 1,43 1,44 1,71 1,270 1,277 1,336 1,361 1,377 1,409 1,469 1,470 1,497 1,512 1,515 1,528 1,536 1,587 1,719 1,796 1,904 1}
{4 1,11 1,39 1,51 1,55 1,56 1,152 1,178 1,204 1,213 1,216 1,228 1,237 1,238 1,283 1,286 1,335 1,337 1,361 1,365 1,369 1,388 1,389 1,391 1,402 1,403 1,433 1,449 1,453 1,480 1,497 1,500 1,504 1,509 1,528 1,538 1,539 1,580 1,627 1,629 1,650 1,657 1,709 1,711 1,725 1,746 1,763 1,782 1,783 1,788 1,790 1,796 1,803 1,823 1,835 1,854 1,859 1,873 1,875 1,883 1,896 1,909 1}
{0 1,4 1,94 1,114 1,116 1,125 1,207 1,270 1,361 1,391 1,393 1,460 1,479 1,525 1,555 1,583 1,590 1,657 1,680 1,781 1,807 1,867 1,913 1}
{4 1,7 1,29 1,39 1,41 1,45 1,56 1,82 1,103 1,116 1,123 1,161 1,197 1,211 1,214 1,222 1,271 1,276 1,277 1,308 1,311 1,328 1,329 1,334 1,342 1,345 1,361 1,365 1,369 1,388 1,391 1,402 1,470 1,478 1,515 1,518 1,528 1,537 1,538 1,541 1,548 1,591 1,603 1,657 1,669 1,695 1,775 1,777 1,782 1,783 1,802 1,867 1,869 1,883 1,909 1,911 1}
{4 1,6 1,8 1,11 1,32 1,37 1,39 1,43 1,45 1,46 1,51 1,52 1,54 1,55 1,56 1,61 1,68 1,70 1,75 1,78 1,82 1,84 1,85 1,87 1,106 1,115 1,116 1,123 1,125 1,153 1,163 1,164 1,166 1,168 1,190 1,191 1,193 1,199 1,225 1,228 1,237 1,250 1,267 1,277 1,286 1,288 1,316 1,318 1,328 1,329 1,332 1,339 1,342 1,358 1,361 1,363 1,369 1,377 1,382 1,383 1,386 1,388 1,391 1,393 1,402 1,405 1,412 1,413 1,416 1,421 1,431 1,433 1,439 1,444 1,451 1,452 1,455 1,457 1,478 1,485 1,486 1,491 1,493 1,508 1,510 1,515 1,528 1,536 1,538 1,539 1,541 1,542 1,552 1,567 1,568 1,591 1,596 1,597 1,599 1,602 1,609 1,619 1,620 1,621 1,625 1,632 1,657 1,683 1,685 1,691 1,707 1,709 1,712 1,714 1,725 1,726 1,731 1,747 1,751 1,752 1,761 1,767 1,779 1,782 1,783 1,790 1,796 1,807 1,816 1,827 1,831 1,834 1,847 1,854 1,857 1,863 1,871 1,872 1,873 1,876 1,877 1,879 1,883 1,890 1,895 1,909 1}
{4 1,28 1,39 1,51 1,61 1,70 1,73 1,82 1,105 1,123 1,145 1,148 1,203 1,244 1,295 1,329 1,333 1,361 1,369 1,386 1,388 1,391 1,457 1,463 1,479 1,515 1,552 1,656 1,695 1,735 1,769 1,779 1,782 1,783 1,786 1,788 1,790 1,793 1,796 1,807 1,815 1,823 1,834 1,879 1,880 1,903 1,913 1}
{9 1,37 1,55 1,123 1,152 1,177 1,200 1,222 1,244 1,258 1,286 1,369 1,388 1,393 1,498 1,510 1,518 1,539 1,555 1,567 1,618 1,657 1,783 1,851 1,885 1,900 1}
{4 1,11 1,24 1,25 1,29 1,51 1,55 1,56 1,82 1,94 1,114 1,123 1,170 1,176 1,177 1,194 1,204 1,211 1,228 1,239 1,277 1,329 1,336 1,337 1,361 1,365 1,369 1,388 1,389 1,391 1,392 1,457 1,460 1,468 1,478 1,528 1,538 1,546 1,548 1,553 1,567 1,622 1,657 1,732 1,763 1,775 1,782 1,783 1,788 1,790 1,796 1,807 1,815 1,825 1,847 1,851 1,875 1,879 1,890 1,891 1,895 1,909 1,912 1}
{4 1,6 1,9 1,15 1,24 1,26 1,28 1,29 1,31 1,32 1,37 1,39 1,42 1,43 1,45 1,46 1,49 1,51 1,54 1,56 1,61 1,66 1,75 1,83 1,92 1,107 1,114 1,115 1,123 1,127 1,128 1,140 1,168 1,170 1,175 1,195 1,207 1,210 1,224 1,277 1,295 1,300 1,301 1,306 1,308 1,310 1,321 1,322 1,328 1,329 1,330 1,332 1,339 1,344 1,345 1,347 1,361 1,365 1,369 1,378 1,388 1,391 1,402 1,409 1,417 1,425 1,428 1,433 1,440 1,445 1,468 1,469 1,470 1,471 1,495 1,500 1,510 1,518 1,521 1,528 1,536 1,538 1,541 1,552 1,574 1,577 1,587 1,597 1,634 1,657 1,661 1,675 1,676 1,677 1,682 1,734 1,744 1,755 1,763 1,769 1,781 1,782 1,783 1,785 1,786 1,788 1,796 1,798 1,799 1,801 1,804 1,805 1,807 1,809 1,823 1,832 1,836 1,875 1,881 1,883 1,888 1,898 1,903 1,909 1,913 1}
{29 1,39 1,98 1,177 1,201 1,202 1,277 1,329 1,361 1,365 1,369 1,391 1,474 1,528 1,558 1,741 1,783 1,804 1,807 1,824 1,831 1,855 1,909 1}
{6 1,24 1,39 1,52 1,152 1,222 1,238 1,270 1,361 1,369 1,388 1,433 1,455 1,497 1,528 1,538 1,541 1,552 1,587 1,709 1,725 1,783 1,789 1,807 1,821 1,851 1,895 1}
{4 1,24 1,39 1,51 1,55 1,70 1,82 1,101 1,114 1,117 1,120 1,123 1,135 1,172 1,181 1,203 1,228 1,321 1,328 1,358 1,361 1,369 1,388 1,391 1,469 1,470 1,476 1,497 1,512 1,515 1,518 1,528 1,529 1,536 1,552 1,553 1,567 1,585 1,591 1,618 1,719 1,769 1,782 1,783 1,807 1,826 1,863 1,879 1,880 1,883 1,913 1}
{4 1,35 1,39 1,51 1,55 1,56 1,82 1,85 1,92 1,115 1,152 1,170 1,201 1,202 1,223 1,229 1,328 1,329 1,365 1,369 1,388 1,411 1,473 1,474 1,509 1,515 1,518 1,520 1,528 1,538 1,541 1,548 1,564 1,567 1,570 1,622 1,639 1,654 1,660 1,672 1,691 1,782 1,783 1,791 1,807 1,859 1,865 1,872 1,875 1,879 1,883 1,893 1,895 1}
{4 1,5 1,15 1,37 1,39 1,43 1,51 1,55 1,56 1,60 1,61 1,70 1,75 1,77 1,78 1,79 1,82 1,83 1,84 1,86 1,92 1,106 1,114 1,117 1,123 1,128 1,156 1,166 1,168 1,169 1,186 1,194 1,199 1,204 1,210 1,223 1,225 1,239 1,243 1,264 1,268 1,271 1,277 1,280 1,286 1,293 1,296 1,297 1,300 1,314 1,328 1,329 1,339 1,342 1,361 1,365 1,369 1,388 1,391 1,402 1,409 1,425 1,427 1,430 1,432 1,434 1,437 1,438 1,439 1,441 1,442 1,447 1,451 1,452 1,456 1,457 1,463 1,468 1,478 1,480 1,481 1,490 1,491 1,493 1,495 1,512 1,518 1,521 1,527 1,528 1,536 1,538 1,539 1,541 1,545 1,548 1,553 1,570 1,580 1,590 1,614 1,615 1,623 1,630 1,647 1,657 1,672 1,673 1,677 1,679 1,691 1,694 1,695 1,700 1,709 1,712 1,714 1,722 1,723 1,725 1,752 1,761 1,762 1,763 1,776 1,782 1,783 1,788 1,793 1,794 1,798 1,807 1,812 1,823 1,836 1,838 1,842 1,843 1,844 1,849 1,858 1,859 1,861 1,863 1,876 1,877 1,879 1,883 1,890 1,895 1,903 1,904 1,907 1,909 1}
{22 1,45 1,123 1,270 1,329 1,361 1,374 1,541 1,744 1,783 1,870 1}
{9 1,37 1,55 1,103 1,123 1,152 1,177 1,200 1,222 1,239 1,244 1,258 1,286 1,339 1,369 1,388 1,391 1,393 1,498 1,506 1,510 1,515 1,516 1,518 1,528 1,539 1,567 1,618 1,684 1,782 1,783 1,788 1,885 1,911 1,913 1}
{4 1,11 1,29 1,39 1,41 1,55 1,75 1,79 1,82 1,87 1,114 1,123 1,128 1,135 1,149 1,156 1,171 1,177 1,187 1,204 1,207 1,210 1,218 1,225 1,228 1,260 1,277 1,288 1,296 1,297 1,308 1,312 1,329 1,342 1,361 1,365 1,369 1,388 1,391 1,402 1,433 1,441 1,442 1,449 1,452 1,453 1,457 1,469 1,480 1,488 1,490 1,491 1,518 1,521 1,528 1,536 1,541 1,588 1,596 1,600 1,601 1,608 1,621 1,623 1,625 1,627 1,629 1,631 1,642 1,647 1,657 1,668 1,673 1,679 1,694 1,755 1,762 1,763 1,776 1,782 1,783 1,784 1,790 1,793 1,807 1,828 1,829 1,840 1,842 1,844 1,854 1,858 1,859 1,867 1,872 1,876 1,877 1,879 1,883 1,895 1,909 1,913 1}
{4 1,24 1,39 1,55 1,56 1,70 1,81 1,82 1,114 1,122 1,125 1,175 1,207 1,228 1,270 1,277 1,332 1,345 1,361 1,369 1,388 1,441 1,479 1,503 1,552 1,553 1,555 1,583 1,590 1,657 1,680 1,781 1,783 1,790 1,795 1,807 1,809 1,854 1,867 1,869 1,879 1}
{4 1,26 1,39 1,55 1,60 1,61 1,89 1,103 1,114 1,123 1,152 1,204 1,210 1,228 1,239 1,277 1,300 1,321 1,339 1,352 1,361 1,365 1,369 1,385 1,388 1,391 1,393 1,429 1,453 1,470 1,497 1,515 1,516 1,520 1,528 1,541 1,547 1,625 1,637 1,657 1,668 1,684 1,763 1,771 1,782 1,783 1,788 1,807 1,821 1,829 1,832 1,837 1,867 1,869 1,883 1,885 1,909 1,911 1,913 1}
{4 1,41 1,43 1,61 1,248 1,271 1,282 1,283 1,320 1,328 1,344 1,357 1,369 1,371 1,388 1,391 1,468 1,493 1,528 1,538 1,541 1,569 1,657 1,754 1,782 1,783 1,788 1,796 1,804 1,805 1,807 1,854 1,883 1,913 1}
{4 1,24 1,28 1,37 1,39 1,61 1,70 1,82 1,88 1,101 1,123 1,181 1,203 1,222 1,228 1,244 1,277 1,294 1,307 1,329 1,333 1,361 1,365 1,369 1,386 1,388 1,391 1,393 1,404 1,433 1,439 1,453 1,455 1,457 1,463 1,470 1,479 1,536 1,538 1,552 1,577 1,628 1,656 1,657 1,669 1,695 1,735 1,769 1,779 1,783 1,790 1,793 1,796 1,804 1,807 1,823 1,834 1,869 1,879 1,880 1,883 1,902 1}
{4 1,6 1,39 1,51 1,55 1,59 1,61 1,83 1,85 1,115 1,124 1,130 1,152 1,177 1,239 1,253 1,276 1,286 1,300 1,321 1,328 1,329 1,361 1,365 1,369 1,388 1,391 1,392 1,409 1,411 1,414 1,416 1,470 1,491 1,518 1,528 1,541 1,545 1,567 1,627 1,632 1,645 1,646 1,657 1,660 1,670 1,709 1,714 1,782 1,783 1,789 1,796 1,807 1,816 1,831 1,872 1,879 1,883 1,893 1,895 1,910 1,913 1}
{4 1,6 1,17 1,39 1,43 1,56 1,61 1,82 1,96 1,114 1,115 1,148 1,166 1,169 1,177 1,183 1,193 1,199 1,228 1,235 1,267 1,271 1,277 1,286 1,300 1,305 1,308 1,312 1,316 1,324 1,329 1,361 1,362 1,365 1,369 1,389 1,402 1,407 1,416 1,425 1,431 1,439 1,449 1,464 1,469 1,478 1,490 1,518 1,528 1,536 1,539 1,541 1,548 1,553 1,570 1,600 1,627 1,657 1,667 1,679 1,709 1,714 1,716 1,725 1,754 1,763 1,764 1,767 1,769 1,779 1,781 1,782 1,783 1,786 1,788 1,807 1,811 1,821 1,834 1,861 1,865 1,875 1,877 1,883 1,887 1,895 1,902 1,903 1,909 1,913 1}
{4 1,28 1,39 1,51 1,55 1,56 1,61 1,70 1,73 1,82 1,91 1,105 1,114 1,123 1,145 1,148 1,181 1,203 1,204 1,210 1,226 1,228 1,244 1,295 1,328 1,329 1,333 1,361 1,369 1,386 1,388 1,391 1,412 1,417 1,457 1,463 1,479 1,495 1,515 1,530 1,541 1,552 1,577 1,638 1,656 1,660 1,667 1,695 1,709 1,735 1,763 1,769 1,779 1,782 1,783 1,784 1,786 1,788 1,790 1,793 1,796 1,807 1,815 1,823 1,834 1,864 1,867 1,872 1,879 1,880 1,895 1,903 1,906 1,909 1}
{4 1,6 1,11 1,14 1,18 1,24 1,33 1,35 1,36 1,37 1,39 1,43 1,51 1,55 1,56 1,58 1,59 1,61 1,82 1,85 1,86 1,91 1,95 1,103 1,106 1,114 1,121 1,123 1,124 1,130 1,133 1,134 1,135 1,164 1,169 1,177 1,186 1,195 1,197 1,201 1,204 1,215 1,228 1,229 1,231 1,239 1,245 1,247 1,275 1,276 1,277 1,279 1,280 1,286 1,304 1,305 1,308 1,312 1,315 1,324 1,328 1,329 1,334 1,336 1,342 1,358 1,360 1,361 1,369 1,386 1,388 1,390 1,391 1,392 1,411 1,414 1,430 1,441 1,460 1,473 1,491 1,493 1,496 1,518 1,528 1,536 1,537 1,538 1,539 1,541 1,548 1,553 1,556 1,567 1,568 1,570 1,604 1,612 1,629 1,645 1,655 1,657 1,659 1,667 1,673 1,690 1,700 1,702 1,703 1,707 1,714 1,746 1,748 1,749 1,752 1,779 1,782 1,783 1,785 1,788 1,789 1,790 1,798 1,800 1,801 1,805 1,807 1,823 1,831 1,834 1,840 1,857 1,862 1,865 1,869 1,870 1,871 1,872 1,875 1,877 1,879 1,883 1,885 1,895 1,904 1,910 1,913 1}
{45 1,51 1,56 1,126 1,199 1,228 1,304 1,331 1,335 1,357 1,361 1,362 1,388 1,429 1,430 1,450 1,463 1,470 1,528 1,552 1,697 1,711 1,761 1,782 1,783 1,796 1,807 1,811 1,846 1,867 1,913 1}
{4 1,6 1,15 1,18 1,32 1,39 1,43 1,55 1,66 1,71 1,82 1,92 1,97 1,105 1,117 1,171 1,203 1,210 1,228 1,243 1,245 1,292 1,306 1,308 1,321 1,323 1,328 1,329 1,332 1,345 1,361 1,369 1,388 1,391 1,417 1,433 1,448 1,454 1,470 1,491 1,492 1,521 1,528 1,536 1,538 1,539 1,601 1,655 1,667 1,679 1,681 1,686 1,739 1,763 1,773 1,775 1,779 1,782 1,783 1,790 1,796 1,801 1,807 1,814 1,815 1,834 1,854 1,867 1,875 1,879 1,880 1,883 1,887 1,893 1,895 1,903 1,904 1,906 1,909 1}
{4 1,31 1,39 1,70 1,71 1,82 1,97 1,123 1,222 1,285 1,328 1,329 1,332 1,345 1,361 1,388 1,391 1,402 1,528 1,541 1,567 1,709 1,716 1,782 1,796 1,849 1,858 1,875 1,883 1,913 1}
{4 1,6 1,21 1,24 1,26 1,39 1,51 1,55 1,61 1,65 1,82 1,98 1,106 1,114 1,123 1,163 1,207 1,210 1,228 1,277 1,308 1,327 1,328 1,337 1,358 1,361 1,365 1,369 1,385 1,391 1,409 1,423 1,425 1,428 1,433 1,453 1,478 1,491 1,493 1,495 1,502 1,515 1,536 1,537 1,541 1,573 1,612 1,618 1,725 1,732 1,745 1,746 1,750 1,755 1,763 1,779 1,783 1,793 1,807 1,815 1,821 1,835 1,867 1,909 1,912 1,913 1}
{4 1,39 1,51 1,55 1,114 1,120 1,123 1,153 1,172 1,195 1,210 1,228 1,328 1,361 1,369 1,388 1,476 1,510 1,515 1,528 1,536 1,552 1,577 1,714 1,735 1,763 1,769 1,782 1,783 1,793 1,807 1,811 1,826 1,883 1,909 1}
{4 1,14 1,19 1,29 1,35 1,37 1,39 1,43 1,46 1,47 1,51 1,82 1,84 1,86 1,93 1,106 1,114 1,115 1,123 1,130 1,138 1,146 1,147 1,152 1,157 1,169 1,170 1,199 1,201 1,202 1,204 1,207 1,218 1,222 1,242 1,248 1,253 1,277 1,286 1,306 1,315 1,316 1,321 1,328 1,329 1,331 1,339 1,343 1,361 1,369 1,382 1,388 1,391 1,396 1,434 1,437 1,441 1,453 1,455 1,463 1,491 1,495 1,497 1,508 1,509 1,512 1,515 1,516 1,518 1,524 1,528 1,535 1,536 1,538 1,541 1,548 1,557 1,563 1,564 1,567 1,569 1,592 1,660 1,675 1,682 1,684 1,701 1,707 1,713 1,714 1,739 1,755 1,760 1,764 1,779 1,782 1,783 1,788 1,789 1,790 1,796 1,798 1,802 1,807 1,824 1,854 1,858 1,867 1,875 1,878 1,879 1,883 1,885 1,903 1,913 1}
{4 1,6 1,8 1,23 1,24 1,35 1,39 1,43 1,51 1,54 1,55 1,56 1,61 1,77 1,80 1,82 1,86 1,96 1,114 1,159 1,170 1,204 1,223 1,228 1,233 1,270 1,277 1,286 1,300 1,305 1,312 1,314 1,329 1,342 1,361 1,365 1,369 1,386 1,388 1,391 1,402 1,416 1,420 1,428 1,433 1,453 1,456 1,457 1,469 1,472 1,477 1,478 1,481 1,491 1,513 1,515 1,516 1,518 1,522 1,525 1,528 1,536 1,538 1,541 1,547 1,548 1,554 1,567 1,568 1,570 1,582 1,589 1,601 1,603 1,615 1,623 1,640 1,643 1,648 1,657 1,658 1,683 1,690 1,695 1,707 1,710 1,715 1,720 1,725 1,752 1,767 1,779 1,782 1,783 1,784 1,785 1,788 1,790 1,792 1,793 1,796 1,798 1,807 1,816 1,827 1,834 1,859 1,872 1,875 1,883 1,895 1,906 1,913 1}
{4 1,6 1,16 1,39 1,43 1,44 1,45 1,51 1,55 1,61 1,76 1,82 1,91 1,114 1,117 1,123 1,135 1,168 1,172 1,177 1,181 1,196 1,203 1,204 1,228 1,243 1,244 1,252 1,294 1,301 1,308 1,328 1,361 1,365 1,369 1,388 1,391 1,409 1,425 1,428 1,470 1,476 1,493 1,515 1,518 1,525 1,528 1,534 1,552 1,553 1,567 1,615 1,630 1,636 1,657 1,686 1,719 1,763 1,769 1,781 1,782 1,783 1,785 1,789 1,790 1,793 1,799 1,804 1,807 1,826 1,849 1,863 1,865 1,867 1,872 1,875 1,880 1,882 1,883 1,893 1,895 1,909 1,911 1}
{4 1,39 1,56 1,61 1,115 1,152 1,181 1,208 1,222 1,228 1,248 1,286 1,300 1,315 1,329 1,365 1,369 1,379 1,388 1,391 1,396 1,447 1,455 1,491 1,528 1,538 1,564 1,696 1,709 1,782 1,783 1,787 1,790 1,796 1,807 1,820 1,865 1,872 1,875 1,883 1,890 1,895 1,913 1}
{4 1,6 1,11 1,37 1,55 1,82 1,95 1,114 1,115 1,123 1,172 1,196 1,204 1,210 1,211 1,213 1,224 1,235 1,270 1,277 1,286 1,290 1,299 1,310 1,311 1,313 1,330 1,341 1,361 1,369 1,386 1,388 1,391 1,402 1,450 1,453 1,457 1,468 1,485 1,488 1,490 1,518 1,528 1,536 1,537 1,539 1,541 1,552 1,565 1,567 1,615 1,625 1,628 1,638 1,647 1,657 1,681 1,683 1,686 1,714 1,726 1,763 1,766 1,774 1,782 1,783 1,784 1,788 1,790 1,791 1,793 1,796 1,800 1,807 1,826 1,840 1,849 1,852 1,854 1,858 1,860 1,867 1,875 1,876 1,877 1,883 1,890 1,895 1,909 1,913 1}
{4 1,6 1,11 1,14 1,16 1,22 1,24 1,26 1,29 1,32 1,35 1,36 1,37 1,39 1,43 1,45 1,51 1,56 1,61 1,66 1,70 1,78 1,82 1,85 1,87 1,92 1,94 1,97 1,114 1,115 1,123 1,128 1,153 1,168 1,195 1,196 1,204 1,209 1,210 1,223 1,233 1,235 1,240 1,241 1,243 1,252 1,264 1,267 1,268 1,271 1,277 1,279 1,281 1,286 1,295 1,300 1,301 1,302 1,304 1,305 1,306 1,307 1,308 1,321 1,322 1,328 1,329 1,332 1,342 1,344 1,345 1,347 1,348 1,350 1,353 1,354 1,357 1,361 1,365 1,369 1,373 1,388 1,390 1,391 1,417 1,424 1,426 1,428 1,433 1,442 1,443 1,445 1,449 1,454 1,457 1,461 1,469 1,470 1,481 1,491 1,495 1,518 1,519 1,520 1,521 1,528 1,536 1,548 1,551 1,559 1,574 1,576 1,577 1,621 1,623 1,630 1,643 1,647 1,655 1,657 1,667 1,676 1,677 1,679 1,680 1,681 1,695 1,703 1,705 1,708 1,709 1,714 1,731 1,736 1,746 1,752 1,755 1,763 1,769 1,773 1,775 1,779 1,780 1,782 1,783 1,784 1,785 1,790 1,793 1,796 1,798 1,802 1,804 1,807 1,810 1,811 1,812 1,816 1,823 1,829 1,836 1,844 1,849 1,854 1,856 1,858 1,859 1,860 1,863 1,867 1,869 1,873 1,877 1,879 1,880 1,883 1,885 1,887 1,894 1,895 1,902 1,903 1,907 1,909 1,910 1}
{4 1,6 1,15 1,31 1,32 1,39 1,43 1,45 1,46 1,51 1,56 1,82 1,85 1,87 1,105 1,114 1,142 1,154 1,181 1,197 1,201 1,210 1,226 1,228 1,253 1,276 1,286 1,291 1,299 1,300 1,307 1,311 1,315 1,317 1,321 1,328 1,329 1,334 1,361 1,365 1,369 1,383 1,388 1,391 1,407 1,409 1,416 1,478 1,483 1,501 1,528 1,536 1,537 1,538 1,548 1,551 1,552 1,583 1,591 1,612 1,630 1,670 1,679 1,687 1,698 1,709 1,717 1,719 1,734 1,763 1,782 1,783 1,788 1,791 1,794 1,796 1,807 1,831 1,853 1,859 1,863 1,867 1,883 1,895 1,909 1,913 1}
{4 1,6 1,8 1,32 1,37 1,43 1,55 1,56 1,61 1,82 1,172 1,190 1,191 1,228 1,237 1,270 1,277 1,310 1,318 1,332 1,339 1,345 1,358 1,361 1,369 1,377 1,383 1,388 1,391 1,412 1,439 1,444 1,453 1,457 1,491 1,510 1,528 1,536 1,538 1,539 1,541 1,552 1,567 1,599 1,609 1,619 1,657 1,679 1,707 1,712 1,715 1,725 1,750 1,751 1,767 1,779 1,782 1,783 1,796 1,807 1,826 1,827 1,854 1,858 1,890 1,891 1,895 1,913 1}
{4 1,24 1,39 1,55 1,56 1,61 1,62 1,78 1,92 1,110 1,228 1,297 1,305 1,332 1,345 1,347 1,349 1,365 1,369 1,380 1,385 1,388 1,391 1,419 1,470 1,477 1,504 1,515 1,528 1,585 1,597 1,619 1,679 1,772 1,779 1,783 1,823 1,842 1,863 1,867 1,883 1,909 1}
{4 1,5 1,24 1,31 1,37 1,39 1,42 1,43 1,45 1,51 1,52 1,56 1,61 1,65 1,74 1,82 1,84 1,88 1,92 1,102 1,114 1,115 1,130 1,137 1,153 1,154 1,168 1,170 1,193 1,195 1,199 1,201 1,204 1,207 1,210 1,225 1,232 1,233 1,238 1,239 1,242 1,243 1,259 1,264 1,267 1,277 1,286 1,292 1,303 1,308 1,309 1,310 1,313 1,321 1,326 1,328 1,329 1,330 1,331 1,332 1,352 1,354 1,357 1,358 1,360 1,361 1,365 1,369 1,386 1,388 1,389 1,390 1,391 1,409 1,417 1,419 1,425 1,441 1,454 1,457 1,459 1,460 1,463 1,468 1,469 1,471 1,478 1,482 1,491 1,505 1,509 1,512 1,515 1,518 1,521 1,528 1,529 1,532 1,536 1,538 1,541 1,549 1,550 1,551 1,552 1,554 1,561 1,567 1,591 1,592 1,597 1,601 1,603 1,604 1,605 1,616 1,625 1,629 1,630 1,657 1,660 1,667 1,679 1,680 1,707 1,714 1,719 1,739 1,746 1,751 1,752 1,753 1,763 1,772 1,779 1,782 1,783 1,784 1,785 1,786 1,788 1,789 1,790 1,793 1,796 1,804 1,807 1,809 1,823 1,824 1,828 1,832 1,835 1,836 1,840 1,852 1,854 1,858 1,859 1,867 1,868 1,869 1,871 1,872 1,876 1,879 1,883 1,884 1,885 1,890 1,895 1,904 1,907 1,913 1}
{4 1,5 1,6 1,24 1,29 1,31 1,32 1,37 1,39 1,43 1,51 1,55 1,56 1,58 1,61 1,82 1,85 1,95 1,104 1,107 1,114 1,115 1,119 1,123 1,140 1,163 1,175 1,181 1,223 1,228 1,237 1,267 1,269 1,274 1,277 1,280 1,282 1,290 1,315 1,316 1,317 1,318 1,328 1,329 1,336 1,341 1,342 1,361 1,369 1,377 1,387 1,388 1,393 1,400 1,402 1,403 1,437 1,439 1,444 1,463 1,468 1,469 1,470 1,488 1,490 1,491 1,500 1,504 1,510 1,511 1,528 1,529 1,531 1,536 1,538 1,541 1,551 1,552 1,555 1,556 1,558 1,592 1,601 1,609 1,615 1,617 1,618 1,620 1,625 1,652 1,657 1,667 1,671 1,701 1,712 1,725 1,726 1,751 1,752 1,754 1,755 1,768 1,771 1,779 1,782 1,783 1,784 1,788 1,790 1,793 1,796 1,804 1,807 1,863 1,872 1,893 1,895 1,903 1,907 1,909 1,913 1}
{6 1,31 1,39 1,43 1,56 1,82 1,85 1,105 1,117 1,123 1,168 1,171 1,203 1,207 1,210 1,243 1,292 1,308 1,323 1,328 1,329 1,357 1,361 1,369 1,388 1,391 1,433 1,437 1,454 1,463 1,470 1,478 1,491 1,492 1,521 1,528 1,535 1,536 1,539 1,601 1,657 1,667 1,679 1,686 1,709 1,763 1,775 1,782 1,783 1,790 1,791 1,796 1,801 1,807 1,814 1,815 1,879 1,880 1,883 1,887 1,893 1,894 1,895 1,902 1,903 1}
{4 1,6 1,24 1,32 1,36 1,37 1,39 1,43 1,51 1,55 1,56 1,61 1,82 1,88 1,93 1,114 1,115 1,123 1,128 1,129 1,135 1,162 1,171 1,175 1,195 1,204 1,207 1,209 1,210 1,213 1,228 1,230 1,241 1,243 1,244 1,245 1,277 1,279 1,286 1,304 1,308 1,321 1,324 1,329 1,332 1,339 1,345 1,357 1,361 1,365 1,369 1,388 1,391 1,415 1,416 1,417 1,427 1,429 1,433 1,437 1,448 1,450 1,458 1,463 1,467 1,478 1,482 1,488 1,491 1,495 1,497 1,510 1,515 1,516 1,518 1,521 1,528 1,532 1,536 1,538 1,541 1,548 1,549 1,552 1,560 1,567 1,569 1,570 1,588 1,591 1,605 1,616 1,618 1,630 1,631 1,637 1,642 1,645 1,657 1,668 1,672 1,673 1,674 1,677 1,681 1,687 1,691 1,702 1,703 1,709 1,714 1,717 1,730 1,739 1,748 1,749 1,752 1,763 1,775 1,779 1,782 1,783 1,784 1,785 1,786 1,788 1,789 1,791 1,793 1,794 1,796 1,798 1,799 1,804 1,807 1,812 1,820 1,821 1,835 1,849 1,854 1,856 1,858 1,859 1,863 1,867 1,869 1,872 1,875 1,883 1,884 1,890 1,895 1,909 1,913 1}
{4 1,5 1,6 1,14 1,24 1,37 1,39 1,41 1,43 1,51 1,56 1,61 1,70 1,82 1,85 1,86 1,87 1,88 1,92 1,94 1,114 1,115 1,123 1,128 1,161 1,163 1,168 1,178 1,192 1,204 1,225 1,242 1,243 1,249 1,250 1,258 1,267 1,270 1,277 1,288 1,290 1,292 1,301 1,305 1,306 1,307 1,313 1,326 1,328 1,329 1,335 1,344 1,361 1,365 1,369 1,386 1,388 1,391 1,394 1,399 1,401 1,402 1,404 1,407 1,409 1,411 1,425 1,431 1,441 1,448 1,451 1,452 1,459 1,460 1,465 1,467 1,468 1,469 1,478 1,485 1,490 1,515 1,518 1,528 1,529 1,536 1,537 1,541 1,550 1,552 1,569 1,589 1,592 1,597 1,603 1,607 1,620 1,623 1,625 1,657 1,665 1,674 1,679 1,695 1,709 1,712 1,714 1,715 1,726 1,761 1,763 1,779 1,782 1,783 1,785 1,790 1,796 1,798 1,804 1,807 1,810 1,821 1,836 1,837 1,838 1,840 1,846 1,848 1,854 1,859 1,860 1,865 1,868 1,869 1,872 1,877 1,893 1,895 1,903 1,904 1,913 1}
{14 1,24 1,43 1,56 1,61 1,62 1,82 1,85 1,114 1,115 1,136 1,210 1,262 1,277 1,297 1,305 1,308 1,310 1,318 1,332 1,361 1,369 1,380 1,385 1,388 1,391 1,470 1,477 1,497 1,518 1,521 1,525 1,528 1,533 1,536 1,553 1,577 1,587 1,625 1,657 1,679 1,709 1,746 1,763 1,772 1,782 1,783 1,796 1,807 1,842 1,846 1,870 1,875 1,883 1,909 1}
{39 1,85 1,102 1,277 1,329 1,369 1,409 1,470 1,509 1,528 1,592 1,601 1,695 1,719 1,781 1,782 1,807 1,913 1}
{4 1,6 1,15 1,18 1,24 1,29 1,39 1,43 1,51 1,54 1,55 1,56 1,61 1,66 1,82 1,87 1,114 1,115 1,123 1,156 1,157 1,168 1,171 1,183 1,210 1,225 1,242 1,243 1,258 1,264 1,277 1,286 1,296 1,300 1,328 1,329 1,339 1,342 1,357 1,361 1,369 1,388 1,391 1,392 1,402 1,409 1,416 1,427 1,442 1,451 1,452 1,456 1,459 1,470 1,478 1,482 1,490 1,491 1,508 1,518 1,528 1,532 1,536 1,539 1,541 1,545 1,552 1,553 1,565 1,596 1,603 1,647 1,651 1,655 1,657 1,679 1,707 1,709 1,714 1,717 1,722 1,742 1,746 1,752 1,763 1,779 1,782 1,783 1,789 1,790 1,796 1,799 1,803 1,804 1,807 1,830 1,834 1,836 1,838 1,842 1,849 1,856 1,859 1,862 1,867 1,883 1,890 1,893 1,895 1,913 1}
{4 1,18 1,37 1,39 1,45 1,56 1,82 1,85 1,86 1,87 1,101 1,114 1,181 1,183 1,204 1,207 1,222 1,228 1,243 1,264 1,267 1,277 1,303 1,328 1,332 1,344 1,357 1,361 1,365 1,374 1,388 1,389 1,391 1,393 1,402 1,409 1,455 1,467 1,470 1,495 1,510 1,515 1,518 1,521 1,528 1,536 1,538 1,539 1,552 1,627 1,647 1,657 1,763 1,782 1,783 1,788 1,796 1,804 1,807 1,834 1,853 1,856 1,867 1,883 1}
{4 1,24 1,32 1,39 1,43 1,51 1,61 1,123 1,128 1,222 1,265 1,267 1,286 1,329 1,361 1,369 1,385 1,388 1,437 1,455 1,497 1,515 1,528 1,531 1,535 1,553 1,587 1,588 1,618 1,620 1,669 1,731 1,743 1,781 1,783 1,788 1,789 1,790 1,796 1,867 1,869 1,872 1,903 1,913 1}
{0 1,1 1,2 1,3 1,4 1,6 1,14 1,39 1,55 1,69 1,82 1,92 1,114 1,117 1,123 1,168 1,204 1,228 1,250 1,267 1,286 1,290 1,301 1,305 1,329 1,365 1,369 1,386 1,388 1,391 1,394 1,400 1,402 1,451 1,453 1,469 1,501 1,509 1,518 1,529 1,536 1,538 1,559 1,589 1,597 1,603 1,610 1,654 1,657 1,726 1,763 1,771 1,783 1,797 1,807 1,810 1,836 1,848 1,877 1,904 1,913 1}
{4 1,6 1,15 1,17 1,18 1,26 1,29 1,32 1,39 1,43 1,46 1,51 1,55 1,56 1,61 1,66 1,71 1,76 1,77 1,80 1,82 1,85 1,86 1,88 1,92 1,97 1,105 1,114 1,115 1,117 1,122 1,171 1,203 1,210 1,228 1,243 1,245 1,252 1,264 1,271 1,277 1,282 1,300 1,306 1,308 1,310 1,321 1,323 1,328 1,329 1,332 1,344 1,345 1,357 1,361 1,365 1,369 1,379 1,388 1,391 1,402 1,412 1,417 1,433 1,444 1,448 1,449 1,454 1,463 1,470 1,472 1,491 1,492 1,493 1,515 1,521 1,528 1,533 1,536 1,538 1,539 1,541 1,567 1,575 1,601 1,619 1,624 1,630 1,631 1,632 1,635 1,655 1,657 1,659 1,667 1,679 1,681 1,686 1,695 1,709 1,724 1,739 1,755 1,763 1,769 1,773 1,775 1,779 1,782 1,783 1,784 1,785 1,786 1,788 1,790 1,796 1,801 1,807 1,812 1,814 1,815 1,820 1,823 1,834 1,851 1,854 1,858 1,859 1,865 1,867 1,869 1,875 1,877 1,879 1,880 1,882 1,883 1,887 1,893 1,894 1,895 1,896 1,903 1,904 1,906 1,909 1,911 1}
{4 1,37 1,39 1,82 1,121 1,129 1,218 1,369 1,388 1,391 1,498 1,538 1,541 1,623 1,657 1,679 1,695 1,783 1,796 1,807 1,841 1,913 1}
{4 1,6 1,24 1,26 1,43 1,51 1,55 1,61 1,65 1,82 1,103 1,114 1,116 1,210 1,228 1,245 1,250 1,277 1,327 1,333 1,361 1,365 1,369 1,388 1,391 1,409 1,425 1,453 1,457 1,478 1,528 1,541 1,548 1,612 1,643 1,651 1,745 1,746 1,755 1,763 1,783 1,789 1,793 1,807 1,821 1,909 1,913 1}
{0 1,4 1,29 1,39 1,55 1,94 1,114 1,116 1,123 1,125 1,207 1,228 1,270 1,332 1,335 1,361 1,369 1,391 1,393 1,460 1,479 1,525 1,555 1,583 1,590 1,657 1,680 1,694 1,781 1,807 1,867 1}
{4 1,5 1,6 1,15 1,32 1,37 1,38 1,39 1,43 1,45 1,51 1,56 1,82 1,90 1,100 1,114 1,115 1,123 1,161 1,170 1,184 1,197 1,201 1,202 1,204 1,233 1,244 1,269 1,286 1,329 1,334 1,361 1,365 1,369 1,379 1,386 1,388 1,399 1,409 1,433 1,468 1,469 1,473 1,474 1,478 1,497 1,508 1,509 1,516 1,518 1,528 1,533 1,537 1,538 1,541 1,552 1,564 1,570 1,592 1,603 1,654 1,657 1,659 1,679 1,721 1,749 1,758 1,782 1,783 1,786 1,787 1,788 1,790 1,791 1,796 1,800 1,802 1,807 1,829 1,854 1,863 1,865 1,867 1,871 1,872 1,873 1,877 1,883 1,909 1,911 1,913 1}
{0 1,1 1,2 1,4 1,11 1,29 1,39 1,46 1,49 1,56 1,64 1,82 1,87 1,102 1,103 1,114 1,117 1,128 1,177 1,269 1,277 1,279 1,361 1,388 1,391 1,401 1,403 1,408 1,433 1,453 1,500 1,518 1,528 1,623 1,650 1,657 1,681 1,709 1,716 1,719 1,734 1,768 1,779 1,782 1,783 1,796 1,807 1,837 1,841 1,870 1,883 1,913 1}
{4 1,12 1,29 1,82 1,92 1,94 1,114 1,168 1,277 1,303 1,308 1,328 1,329 1,342 1,361 1,369 1,379 1,388 1,391 1,417 1,448 1,457 1,461 1,497 1,518 1,528 1,533 1,600 1,657 1,681 1,695 1,715 1,773 1,779 1,782 1,783 1,786 1,793 1,796 1,807 1,822 1,834 1,854 1,863 1,903 1,907 1}
{4 1,5 1,13 1,32 1,38 1,39 1,43 1,61 1,85 1,114 1,234 1,235 1,242 1,270 1,274 1,277 1,280 1,292 1,329 1,344 1,345 1,361 1,366 1,369 1,376 1,388 1,444 1,450 1,468 1,497 1,505 1,518 1,528 1,536 1,548 1,587 1,592 1,594 1,606 1,673 1,683 1,695 1,711 1,714 1,716 1,780 1,783 1,789 1,807 1,846 1,859 1,895 1,911 1,913 1}
{4 1,32 1,39 1,45 1,82 1,88 1,114 1,328 1,361 1,369 1,386 1,388 1,391 1,394 1,409 1,443 1,518 1,528 1,604 1,659 1,752 1,755 1,763 1,779 1,782 1,783 1,793 1,829 1,867 1,883 1,895 1,909 1,913 1}
{34 1,45 1,51 1,207 1,295 1,308 1,365 1,409 1,781 1,783 1}
{1 1,4 1,5 1,6 1,7 1,11 1,14 1,15 1,16 1,24 1,26 1,28 1,29 1,30 1,32 1,36 1,37 1,39 1,46 1,51 1,52 1,56 1,61 1,66 1,70 1,75 1,82 1,83 1,84 1,85 1,86 1,87 1,89 1,92 1,93 1,94 1,103 1,113 1,114 1,115 1,120 1,121 1,123 1,125 1,126 1,150 1,159 1,161 1,168 1,182 1,183 1,198 1,199 1,204 1,205 1,210 1,211 1,213 1,214 1,232 1,235 1,241 1,242 1,243 1,249 1,257 1,260 1,264 1,265 1,266 1,267 1,269 1,271 1,277 1,286 1,289 1,291 1,300 1,301 1,305 1,306 1,308 1,321 1,328 1,329 1,332 1,333 1,334 1,336 1,339 1,342 1,343 1,353 1,355 1,358 1,361 1,365 1,369 1,373 1,376 1,385 1,386 1,388 1,391 1,392 1,402 1,407 1,409 1,419 1,426 1,432 1,433 1,434 1,439 1,441 1,445 1,453 1,454 1,463 1,469 1,470 1,478 1,484 1,491 1,493 1,495 1,497 1,504 1,508 1,509 1,513 1,515 1,516 1,518 1,520 1,521 1,523 1,528 1,529 1,536 1,538 1,539 1,541 1,545 1,548 1,552 1,553 1,555 1,557 1,559 1,560 1,561 1,588 1,590 1,599 1,600 1,603 1,604 1,606 1,615 1,618 1,621 1,623 1,630 1,631 1,633 1,643 1,645 1,657 1,659 1,660 1,679 1,681 1,682 1,694 1,699 1,701 1,702 1,703 1,709 1,714 1,715 1,716 1,717 1,742 1,752 1,763 1,764 1,776 1,779 1,782 1,783 1,785 1,786 1,788 1,790 1,796 1,798 1,804 1,807 1,810 1,812 1,813 1,814 1,823 1,824 1,833 1,834 1,836 1,837 1,840 1,841 1,842 1,846 1,849 1,852 1,854 1,858 1,860 1,861 1,862 1,863 1,865 1,867 1,868 1,869 1,872 1,873 1,875 1,883 1,884 1,890 1,892 1,895 1,900 1,909 1,911 1,913 1}
{4 1,6 1,18 1,37 1,38 1,39 1,43 1,51 1,55 1,56 1,61 1,66 1,68 1,75 1,82 1,85 1,87 1,114 1,115 1,123 1,126 1,134 1,156 1,157 1,166 1,168 1,170 1,171 1,177 1,225 1,228 1,243 1,264 1,277 1,286 1,296 1,300 1,316 1,328 1,332 1,339 1,342 1,357 1,361 1,369 1,388 1,391 1,392 1,402 1,409 1,417 1,427 1,452 1,456 1,459 1,470 1,478 1,482 1,491 1,502 1,508 1,518 1,527 1,528 1,536 1,537 1,539 1,541 1,545 1,565 1,603 1,647 1,651 1,657 1,666 1,667 1,671 1,679 1,707 1,709 1,714 1,722 1,725 1,737 1,752 1,763 1,779 1,782 1,783 1,785 1,786 1,788 1,790 1,796 1,803 1,804 1,807 1,823 1,836 1,838 1,842 1,852 1,856 1,859 1,865 1,877 1,879 1,883 1,890 1,898 1,909 1,913 1}
{4 1,6 1,37 1,39 1,51 1,56 1,61 1,76 1,81 1,83 1,86 1,102 1,116 1,123 1,130 1,177 1,210 1,225 1,232 1,243 1,250 1,259 1,261 1,277 1,295 1,302 1,304 1,308 1,313 1,319 1,321 1,329 1,357 1,361 1,365 1,369 1,386 1,388 1,391 1,402 1,409 1,433 1,437 1,442 1,460 1,463 1,470 1,471 1,491 1,493 1,518 1,528 1,529 1,536 1,541 1,548 1,601 1,604 1,638 1,657 1,679 1,693 1,709 1,740 1,746 1,763 1,779 1,782 1,783 1,790 1,793 1,794 1,796 1,807 1,812 1,854 1,858 1,859 1,867 1,875 1,883 1,886 1,909 1}
{4 1,39 1,41 1,55 1,56 1,68 1,82 1,83 1,104 1,114 1,115 1,153 1,171 1,177 1,208 1,228 1,277 1,300 1,329 1,332 1,344 1,345 1,361 1,365 1,369 1,388 1,391 1,402 1,433 1,434 1,470 1,477 1,491 1,497 1,518 1,525 1,532 1,552 1,567 1,580 1,647 1,657 1,721 1,763 1,783 1,796 1,799 1,807 1,854 1,867 1,877 1,886 1,909 1,913 1}
{4 1,18 1,24 1,28 1,37 1,39 1,43 1,51 1,55 1,56 1,61 1,82 1,85 1,87 1,115 1,134 1,143 1,170 1,171 1,177 1,228 1,258 1,277 1,296 1,316 1,328 1,332 1,358 1,361 1,369 1,388 1,390 1,391 1,402 1,422 1,437 1,452 1,493 1,502 1,518 1,528 1,536 1,537 1,565 1,605 1,631 1,651 1,657 1,667 1,714 1,782 1,783 1,784 1,786 1,788 1,798 1,803 1,807 1,837 1,849 1,852 1,859 1,863 1,870 1,872 1,874 1,877 1,879 1,895 1,913 1}
{4 1,5 1,6 1,39 1,51 1,70 1,82 1,86 1,95 1,109 1,114 1,115 1,232 1,321 1,332 1,344 1,345 1,369 1,388 1,500 1,536 1,538 1,541 1,548 1,575 1,639 1,641 1,669 1,683 1,761 1,782 1,783 1,788 1,790 1,807 1,813 1,823 1,834 1,854 1,865 1,872 1}
{4 1,7 1,24 1,29 1,37 1,39 1,51 1,82 1,83 1,85 1,88 1,92 1,114 1,121 1,157 1,205 1,208 1,229 1,231 1,243 1,244 1,266 1,277 1,300 1,301 1,329 1,332 1,338 1,345 1,357 1,361 1,365 1,369 1,377 1,388 1,391 1,409 1,427 1,474 1,491 1,495 1,528 1,541 1,563 1,693 1,709 1,763 1,779 1,780 1,782 1,783 1,786 1,788 1,789 1,796 1,849 1,867 1,870 1,895 1,909 1,913 1}
{28 1,31 1,32 1,39 1,43 1,51 1,55 1,56 1,82 1,100 1,168 1,172 1,181 1,184 1,195 1,204 1,223 1,228 1,277 1,307 1,310 1,313 1,320 1,329 1,354 1,357 1,361 1,365 1,369 1,391 1,450 1,487 1,493 1,506 1,510 1,525 1,528 1,536 1,594 1,598 1,619 1,639 1,657 1,709 1,746 1,764 1,781 1,782 1,783 1,784 1,789 1,790 1,804 1,807 1,812 1,826 1,854 1,883 1,895 1,907 1,909 1,913 1}
{4 1,6 1,9 1,39 1,49 1,51 1,56 1,61 1,114 1,134 1,148 1,153 1,161 1,183 1,210 1,228 1,243 1,270 1,277 1,294 1,295 1,329 1,355 1,357 1,361 1,365 1,369 1,388 1,391 1,396 1,402 1,409 1,428 1,436 1,437 1,442 1,453 1,463 1,470 1,471 1,475 1,496 1,521 1,528 1,532 1,536 1,538 1,541 1,552 1,567 1,580 1,592 1,595 1,627 1,628 1,643 1,657 1,667 1,709 1,733 1,763 1,764 1,769 1,780 1,782 1,783 1,789 1,790 1,791 1,796 1,800 1,807 1,809 1,821 1,831 1,852 1,861 1,872 1,875 1,877 1,909 1}
{4 1,6 1,32 1,37 1,39 1,45 1,55 1,56 1,83 1,85 1,114 1,152 1,163 1,205 1,234 1,265 1,270 1,286 1,299 1,313 1,328 1,332 1,336 1,338 1,361 1,365 1,369 1,378 1,388 1,391 1,431 1,434 1,453 1,470 1,473 1,489 1,493 1,495 1,497 1,500 1,508 1,518 1,528 1,536 1,557 1,567 1,573 1,587 1,592 1,627 1,657 1,714 1,755 1,782 1,783 1,784 1,796 1,801 1,807 1,835 1,836 1,849 1,852 1,854 1,858 1,859 1,864 1,870 1,875 1,878 1,895 1,913 1}
{4 1,18 1,24 1,28 1,37 1,39 1,55 1,56 1,61 1,68 1,75 1,82 1,85 1,87 1,114 1,115 1,143 1,166 1,171 1,177 1,195 1,228 1,230 1,277 1,286 1,296 1,313 1,316 1,328 1,329 1,332 1,358 1,361 1,365 1,369 1,388 1,390 1,391 1,402 1,422 1,424 1,437 1,493 1,505 1,518 1,528 1,533 1,536 1,537 1,565 1,605 1,631 1,647 1,651 1,657 1,667 1,714 1,737 1,764 1,782 1,783 1,784 1,788 1,796 1,798 1,803 1,807 1,836 1,837 1,849 1,852 1,863 1,870 1,872 1,874 1,877 1,879 1,883 1,895 1,909 1,913 1}
{4 1,6 1,37 1,39 1,51 1,55 1,56 1,61 1,76 1,81 1,83 1,86 1,102 1,116 1,123 1,130 1,151 1,171 1,177 1,181 1,210 1,225 1,228 1,232 1,243 1,250 1,259 1,261 1,277 1,295 1,302 1,304 1,308 1,313 1,319 1,321 1,329 1,339 1,357 1,361 1,365 1,369 1,386 1,388 1,391 1,402 1,409 1,433 1,437 1,442 1,460 1,463 1,470 1,471 1,491 1,493 1,510 1,518 1,528 1,529 1,536 1,541 1,548 1,601 1,604 1,638 1,657 1,679 1,693 1,709 1,715 1,740 1,746 1,763 1,775 1,779 1,782 1,783 1,788 1,790 1,793 1,794 1,796 1,807 1,812 1,831 1,854 1,858 1,859 1,867 1,875 1,883 1,886 1,909 1}
{0 1,4 1,6 1,11 1,15 1,21 1,24 1,37 1,39 1,56 1,57 1,61 1,82 1,115 1,135 1,152 1,160 1,201 1,202 1,204 1,222 1,264 1,277 1,286 1,310 1,321 1,339 1,361 1,363 1,369 1,382 1,388 1,391 1,402 1,409 1,413 1,428 1,449 1,453 1,454 1,460 1,470 1,493 1,508 1,510 1,512 1,518 1,528 1,536 1,541 1,550 1,567 1,569 1,618 1,657 1,666 1,672 1,694 1,701 1,703 1,709 1,714 1,725 1,728 1,752 1,772 1,782 1,783 1,788 1,790 1,793 1,796 1,804 1,807 1,837 1,849 1,853 1,854 1,859 1,867 1,876 1,879 1,883 1,913 1}
{4 1,11 1,24 1,25 1,29 1,39 1,51 1,55 1,56 1,82 1,94 1,114 1,123 1,136 1,167 1,170 1,176 1,177 1,194 1,204 1,211 1,228 1,239 1,267 1,277 1,300 1,329 1,336 1,337 1,354 1,361 1,365 1,369 1,388 1,389 1,391 1,392 1,402 1,433 1,437 1,449 1,457 1,468 1,478 1,528 1,546 1,548 1,553 1,567 1,622 1,683 1,714 1,721 1,732 1,763 1,775 1,782 1,783 1,786 1,788 1,790 1,796 1,807 1,815 1,821 1,834 1,847 1,851 1,875 1,879 1,883 1,891 1,895 1,896 1,909 1,911 1,912 1,913 1}
{4 1,11 1,16 1,24 1,29 1,32 1,37 1,39 1,43 1,55 1,56 1,66 1,68 1,83 1,85 1,87 1,88 1,114 1,116 1,123 1,128 1,149 1,168 1,196 1,204 1,228 1,243 1,264 1,277 1,295 1,308 1,321 1,328 1,329 1,332 1,344 1,345 1,361 1,365 1,369 1,378 1,388 1,391 1,411 1,417 1,433 1,445 1,454 1,461 1,495 1,515 1,518 1,520 1,528 1,530 1,548 1,552 1,559 1,577 1,647 1,657 1,676 1,682 1,691 1,695 1,703 1,705 1,709 1,714 1,719 1,763 1,770 1,775 1,782 1,783 1,785 1,790 1,796 1,802 1,804 1,807 1,811 1,812 1,816 1,822 1,829 1,836 1,846 1,849 1,854 1,856 1,858 1,867 1,873 1,875 1,883 1,895 1,903 1}
{4 1,29 1,39 1,114 1,123 1,204 1,210 1,285 1,286 1,357 1,361 1,369 1,386 1,388 1,391 1,409 1,433 1,438 1,468 1,497 1,509 1,528 1,541 1,601 1,615 1,657 1,690 1,716 1,729 1,733 1,741 1,763 1,783 1,796 1,807 1,831 1,852 1,908 1,909 1,913 1}
{4 1,6 1,39 1,48 1,49 1,51 1,55 1,56 1,61 1,78 1,82 1,87 1,107 1,114 1,151 1,166 1,182 1,204 1,220 1,233 1,243 1,265 1,277 1,286 1,292 1,316 1,321 1,328 1,332 1,336 1,361 1,369 1,370 1,377 1,387 1,388 1,391 1,392 1,402 1,420 1,432 1,433 1,441 1,442 1,451 1,460 1,468 1,478 1,479 1,490 1,493 1,497 1,501 1,509 1,513 1,518 1,521 1,528 1,536 1,538 1,542 1,553 1,573 1,580 1,609 1,611 1,613 1,614 1,627 1,629 1,630 1,642 1,650 1,653 1,657 1,671 1,672 1,689 1,699 1,703 1,725 1,733 1,762 1,765 1,782 1,783 1,793 1,796 1,807 1,810 1,831 1,835 1,836 1,847 1,855 1,859 1,865 1,867 1,869 1,872 1,875 1,879 1,883 1,891 1,895 1,909 1,913 1}
{4 1,6 1,14 1,24 1,39 1,43 1,55 1,56 1,82 1,85 1,92 1,114 1,115 1,136 1,210 1,228 1,262 1,277 1,297 1,308 1,310 1,318 1,332 1,343 1,361 1,369 1,388 1,391 1,470 1,477 1,497 1,518 1,521 1,525 1,528 1,533 1,536 1,553 1,577 1,587 1,625 1,657 1,709 1,746 1,763 1,779 1,782 1,783 1,796 1,807 1,846 1,854 1,863 1,870 1,875 1,883 1,909 1}
{29 1,92 1,107 1,152 1,210 1,277 1,334 1,391 1,464 1,657 1,763 1,779 1,782 1,807 1,911 1,913 1}
{4 1,7 1,29 1,39 1,43 1,51 1,52 1,55 1,60 1,61 1,82 1,115 1,123 1,228 1,271 1,277 1,287 1,300 1,304 1,338 1,361 1,365 1,369 1,388 1,391 1,490 1,497 1,507 1,528 1,538 1,539 1,541 1,548 1,552 1,561 1,593 1,607 1,608 1,612 1,647 1,650 1,671 1,709 1,728 1,753 1,782 1,783 1,784 1,787 1,788 1,804 1,807 1,836 1,837 1,869 1,870 1,872 1,909 1,913 1}
{4 1,92 1,123 1,205 1,269 1,308 1,332 1,345 1,361 1,369 1,409 1,454 1,515 1,536 1,538 1,555 1,657 1,695 1,714 1,775 1,779 1,796 1,807 1,846 1,877 1,895 1,909 1}
{6 1,29 1,33 1,37 1,39 1,51 1,83 1,114 1,116 1,152 1,168 1,222 1,286 1,293 1,329 1,339 1,361 1,369 1,388 1,457 1,468 1,497 1,528 1,538 1,540 1,541 1,548 1,591 1,601 1,603 1,616 1,627 1,628 1,629 1,673 1,684 1,707 1,714 1,764 1,782 1,783 1,793 1,796 1,807 1,814 1,824 1,849 1,872 1,883 1,905 1,911 1,913 1}
{4 1,18 1,29 1,32 1,39 1,43 1,51 1,56 1,61 1,65 1,95 1,104 1,115 1,121 1,172 1,175 1,210 1,228 1,237 1,267 1,270 1,277 1,282 1,286 1,299 1,311 1,316 1,318 1,336 1,341 1,361 1,369 1,376 1,377 1,387 1,388 1,391 1,393 1,400 1,409 1,412 1,444 1,457 1,470 1,500 1,528 1,536 1,538 1,541 1,552 1,582 1,710 1,712 1,725 1,746 1,752 1,763 1,771 1,783 1,788 1,807 1,826 1,854 1,858 1,873 1,904 1,909 1,913 1}
{4 1,37 1,39 1,45 1,54 1,55 1,56 1,61 1,76 1,82 1,83 1,85 1,86 1,93 1,99 1,114 1,120 1,129 1,177 1,180 1,199 1,204 1,208 1,228 1,239 1,243 1,277 1,280 1,286 1,294 1,301 1,305 1,321 1,324 1,328 1,329 1,332 1,338 1,365 1,369 1,388 1,389 1,391 1,411 1,433 1,475 1,497 1,514 1,521 1,536 1,538 1,548 1,552 1,567 1,570 1,583 1,588 1,601 1,619 1,625 1,631 1,657 1,659 1,693 1,695 1,704 1,715 1,752 1,763 1,773 1,782 1,783 1,786 1,788 1,793 1,796 1,801 1,807 1,823 1,828 1,834 1,854 1,868 1,874 1,875 1,877 1,889 1,895 1,903 1,909 1,911 1}
{4 1,6 1,29 1,37 1,39 1,41 1,45 1,47 1,56 1,82 1,103 1,114 1,125 1,142 1,253 1,271 1,274 1,277 1,286 1,304 1,328 1,331 1,361 1,369 1,388 1,391 1,497 1,506 1,512 1,515 1,518 1,521 1,528 1,535 1,538 1,541 1,555 1,593 1,605 1,625 1,630 1,657 1,681 1,686 1,714 1,776 1,781 1,782 1,783 1,787 1,788 1,794 1,796 1,807 1,829 1,846 1,854 1,859 1,870 1,871 1,874 1,875 1,878 1,883 1,895 1,913 1}
{4 1,5 1,6 1,29 1,37 1,45 1,55 1,82 1,114 1,210 1,228 1,235 1,300 1,304 1,328 1,361 1,369 1,386 1,388 1,391 1,394 1,409 1,443 1,449 1,468 1,495 1,505 1,518 1,528 1,536 1,630 1,652 1,659 1,707 1,763 1,782 1,783 1,797 1,807 1,828 1,832 1,834 1,876 1,909 1,913 1}
{4 1,6 1,15 1,18 1,32 1,39 1,43 1,55 1,66 1,71 1,82 1,92 1,97 1,105 1,117 1,128 1,171 1,203 1,210 1,228 1,243 1,244 1,245 1,292 1,306 1,308 1,321 1,323 1,328 1,329 1,332 1,345 1,357 1,361 1,369 1,388 1,391 1,417 1,426 1,433 1,448 1,454 1,463 1,470 1,479 1,491 1,492 1,508 1,521 1,528 1,536 1,538 1,539 1,601 1,655 1,659 1,667 1,679 1,681 1,686 1,739 1,763 1,767 1,773 1,775 1,779 1,782 1,783 1,790 1,793 1,796 1,801 1,807 1,814 1,815 1,834 1,854 1,867 1,875 1,879 1,880 1,883 1,887 1,893 1,895 1,903 1,904 1,906 1,909 1}
{4 1,6 1,14 1,24 1,26 1,37 1,39 1,43 1,44 1,56 1,57 1,61 1,82 1,83 1,123 1,143 1,144 1,148 1,181 1,204 1,210 1,227 1,253 1,260 1,265 1,270 1,275 1,276 1,277 1,300 1,311 1,329 1,339 1,361 1,369 1,383 1,388 1,391 1,409 1,442 1,487 1,494 1,497 1,501 1,515 1,521 1,528 1,536 1,538 1,603 1,660 1,666 1,674 1,714 1,740 1,752 1,756 1,763 1,782 1,783 1,784 1,788 1,791 1,796 1,799 1,801 1,805 1,807 1,821 1,829 1,849 1,859 1,869 1,877 1,883 1,895 1,909 1,913 1}
{0 1,1 1,2 1,4 1,37 1,39 1,61 1,62 1,82 1,92 1,151 1,154 1,181 1,204 1,210 1,214 1,228 1,243 1,277 1,312 1,339 1,361 1,363 1,386 1,388 1,391 1,441 1,457 1,497 1,525 1,528 1,536 1,538 1,541 1,609 1,625 1,630 1,679 1,720 1,763 1,782 1,783 1,791 1,807 1,825 1,852 1,859 1,869 1,879 1,883 1,895 1,913 1}
{4 1,29 1,32 1,55 1,75 1,102 1,114 1,115 1,126 1,152 1,177 1,204 1,271 1,310 1,329 1,332 1,347 1,349 1,358 1,361 1,363 1,369 1,433 1,515 1,518 1,552 1,588 1,654 1,755 1,763 1,782 1,783 1,793 1,807 1,856 1,875 1}
{4 1,6 1,14 1,30 1,37 1,39 1,41 1,45 1,51 1,55 1,56 1,71 1,77 1,82 1,83 1,87 1,91 1,97 1,114 1,116 1,122 1,123 1,128 1,129 1,148 1,152 1,157 1,162 1,170 1,171 1,177 1,209 1,214 1,228 1,239 1,250 1,254 1,260 1,277 1,280 1,296 1,301 1,307 1,320 1,328 1,329 1,332 1,333 1,345 1,346 1,361 1,365 1,366 1,368 1,369 1,370 1,380 1,388 1,391 1,409 1,431 1,433 1,453 1,463 1,464 1,468 1,493 1,495 1,497 1,503 1,515 1,518 1,528 1,532 1,536 1,538 1,539 1,548 1,552 1,567 1,583 1,588 1,592 1,600 1,603 1,611 1,612 1,623 1,627 1,629 1,641 1,644 1,645 1,647 1,651 1,657 1,662 1,672 1,674 1,689 1,695 1,709 1,714 1,748 1,762 1,782 1,783 1,784 1,788 1,793 1,796 1,804 1,807 1,812 1,821 1,824 1,854 1,859 1,867 1,870 1,879 1,883 1,904 1,907 1,913 1}
{4 1,6 1,23 1,25 1,39 1,51 1,55 1,56 1,61 1,82 1,94 1,96 1,114 1,166 1,168 1,177 1,183 1,184 1,199 1,204 1,228 1,232 1,239 1,271 1,273 1,277 1,305 1,329 1,342 1,357 1,361 1,365 1,369 1,389 1,391 1,392 1,402 1,415 1,425 1,433 1,449 1,453 1,454 1,457 1,463 1,466 1,477 1,481 1,490 1,491 1,497 1,518 1,522 1,528 1,533 1,536 1,541 1,546 1,570 1,615 1,679 1,683 1,714 1,749 1,750 1,763 1,779 1,782 1,783 1,788 1,792 1,796 1,807 1,816 1,847 1,851 1,858 1,859 1,864 1,865 1,875 1,878 1,891 1,895 1,909 1,911 1,913 1}
{24 1,55 1,61 1,102 1,152 1,204 1,369 1,464 1,470 1,509 1,528 1,746 1,783 1,790 1,872 1,883 1,893 1}
{4 1,11 1,29 1,37 1,39 1,43 1,51 1,56 1,61 1,88 1,93 1,114 1,116 1,130 1,142 1,152 1,168 1,177 1,196 1,198 1,199 1,201 1,204 1,205 1,210 1,218 1,271 1,277 1,286 1,302 1,315 1,320 1,332 1,338 1,339 1,358 1,361 1,365 1,369 1,383 1,388 1,391 1,402 1,403 1,417 1,433 1,453 1,463 1,470 1,473 1,474 1,497 1,498 1,509 1,518 1,525 1,528 1,536 1,538 1,540 1,541 1,548 1,553 1,569 1,587 1,592 1,594 1,601 1,605 1,623 1,627 1,629 1,638 1,657 1,669 1,671 1,679 1,680 1,682 1,693 1,714 1,715 1,719 1,721 1,763 1,782 1,783 1,788 1,796 1,807 1,843 1,846 1,849 1,854 1,859 1,864 1,865 1,867 1,878 1,883 1,887 1,904 1,909 1,910 1,911 1,913 1}
{4 1,61 1,115 1,213 1,243 1,277 1,286 1,300 1,365 1,391 1,428 1,461 1,468 1,542 1,552 1,714 1,753 1,783 1,848 1,869 1,909 1,913 1}
{4 1,16 1,39 1,55 1,61 1,81 1,83 1,86 1,102 1,152 1,195 1,204 1,209 1,210 1,247 1,277 1,294 1,300 1,332 1,339 1,345 1,357 1,358 1,361 1,365 1,369 1,386 1,388 1,391 1,409 1,417 1,425 1,434 1,453 1,464 1,478 1,491 1,507 1,513 1,519 1,536 1,538 1,583 1,585 1,601 1,645 1,657 1,667 1,695 1,731 1,763 1,782 1,783 1,793 1,796 1,807 1,820 1,823 1,828 1,840 1,849 1,853 1,863 1,876 1,879 1,883 1,909 1}
{4 1,6 1,18 1,26 1,29 1,37 1,39 1,41 1,43 1,45 1,47 1,51 1,54 1,55 1,56 1,61 1,82 1,83 1,85 1,87 1,88 1,89 1,91 1,94 1,115 1,124 1,152 1,153 1,157 1,159 1,168 1,169 1,177 1,180 1,204 1,207 1,210 1,235 1,245 1,267 1,270 1,271 1,275 1,277 1,280 1,286 1,302 1,313 1,318 1,321 1,325 1,328 1,329 1,332 1,335 1,336 1,342 1,355 1,357 1,361 1,365 1,369 1,386 1,388 1,391 1,402 1,409 1,411 1,417 1,419 1,433 1,441 1,443 1,449 1,450 1,451 1,453 1,454 1,457 1,464 1,470 1,491 1,495 1,497 1,503 1,508 1,512 1,515 1,516 1,518 1,521 1,528 1,529 1,536 1,538 1,539 1,541 1,548 1,550 1,552 1,553 1,567 1,598 1,600 1,601 1,606 1,615 1,626 1,630 1,631 1,638 1,642 1,644 1,645 1,647 1,648 1,650 1,657 1,659 1,666 1,668 1,672 1,682 1,695 1,696 1,701 1,714 1,716 1,725 1,737 1,746 1,750 1,755 1,763 1,782 1,783 1,784 1,786 1,787 1,790 1,793 1,796 1,804 1,807 1,808 1,809 1,813 1,814 1,823 1,824 1,825 1,828 1,829 1,834 1,836 1,837 1,840 1,846 1,854 1,859 1,862 1,864 1,865 1,867 1,869 1,870 1,872 1,875 1,876 1,879 1,883 1,885 1,893 1,895 1,903 1,904 1,907 1,909 1,913 1}
{4 1,23 1,37 1,39 1,55 1,56 1,87 1,99 1,114 1,149 1,212 1,214 1,228 1,292 1,303 1,305 1,336 1,338 1,342 1,361 1,363 1,365 1,369 1,383 1,386 1,388 1,391 1,402 1,409 1,417 1,447 1,453 1,457 1,468 1,477 1,478 1,496 1,512 1,513 1,518 1,522 1,528 1,536 1,567 1,657 1,666 1,672 1,693 1,725 1,738 1,782 1,783 1,785 1,790 1,793 1,859 1,860 1,875 1,879 1,883 1,903 1,913 1}
{4 1,24 1,39 1,51 1,55 1,76 1,83 1,102 1,114 1,116 1,152 1,190 1,210 1,315 1,329 1,361 1,369 1,371 1,391 1,402 1,440 1,453 1,455 1,518 1,525 1,528 1,538 1,541 1,552 1,567 1,588 1,627 1,630 1,657 1,763 1,764 1,781 1,782 1,783 1,785 1,786 1,790 1,793 1,796 1,798 1,807 1,821 1,823 1,831 1,876 1,877 1,889 1,909 1}
{4 1,7 1,24 1,37 1,39 1,51 1,55 1,56 1,61 1,77 1,82 1,85 1,88 1,114 1,121 1,123 1,129 1,152 1,157 1,162 1,164 1,178 1,195 1,204 1,205 1,208 1,222 1,229 1,231 1,244 1,251 1,277 1,286 1,315 1,316 1,328 1,329 1,332 1,357 1,361 1,365 1,368 1,369 1,374 1,388 1,391 1,407 1,409 1,427 1,457 1,463 1,474 1,491 1,518 1,525 1,528 1,538 1,541 1,549 1,588 1,612 1,629 1,645 1,693 1,709 1,714 1,748 1,749 1,752 1,763 1,777 1,779 1,780 1,782 1,783 1,786 1,788 1,789 1,790 1,796 1,798 1,799 1,807 1,818 1,821 1,845 1,849 1,865 1,867 1,870 1,871 1,872 1,875 1,895 1,909 1,913 1}
{4 1,24 1,39 1,43 1,55 1,82 1,114 1,123 1,125 1,136 1,152 1,167 1,177 1,228 1,239 1,267 1,300 1,307 1,329 1,337 1,354 1,361 1,365 1,369 1,388 1,391 1,402 1,433 1,437 1,449 1,457 1,460 1,478 1,505 1,528 1,538 1,567 1,623 1,657 1,683 1,714 1,721 1,732 1,763 1,779 1,782 1,783 1,786 1,788 1,796 1,807 1,815 1,821 1,825 1,834 1,883 1,885 1,890 1,891 1,895 1,896 1,909 1,911 1,912 1,913 1}
{4 1,51 1,55 1,76 1,84 1,102 1,228 1,302 1,324 1,361 1,369 1,510 1,528 1,552 1,585 1,588 1,625 1,657 1,709 1,782 1,783 1,790 1,793 1,807 1,823 1,852 1,858 1,909 1}
{4 1,39 1,55 1,56 1,74 1,82 1,118 1,123 1,139 1,152 1,204 1,217 1,228 1,257 1,277 1,298 1,309 1,328 1,361 1,365 1,369 1,381 1,388 1,391 1,427 1,471 1,499 1,520 1,528 1,538 1,548 1,567 1,578 1,646 1,647 1,660 1,692 1,699 1,706 1,709 1,757 1,779 1,783 1,788 1,807 1,812 1,841 1,867 1,883 1,893 1,913 1}
{4 1,24 1,39 1,43 1,55 1,56 1,75 1,82 1,94 1,96 1,115 1,149 1,166 1,167 1,171 1,183 1,209 1,211 1,228 1,267 1,277 1,286 1,300 1,312 1,324 1,326 1,329 1,337 1,365 1,369 1,388 1,391 1,402 1,449 1,460 1,528 1,536 1,538 1,539 1,541 1,548 1,609 1,623 1,657 1,725 1,732 1,763 1,772 1,779 1,783 1,786 1,807 1,811 1,815 1,825 1,849 1,854 1,858 1,887 1,890 1,912 1,913 1}
{4 1,29 1,39 1,55 1,56 1,76 1,95 1,102 1,123 1,151 1,204 1,228 1,277 1,286 1,315 1,329 1,361 1,369 1,388 1,394 1,399 1,485 1,488 1,495 1,518 1,528 1,554 1,628 1,755 1,782 1,783 1,790 1,796 1,902 1,909 1}
{4 1,24 1,39 1,42 1,43 1,55 1,74 1,91 1,92 1,118 1,123 1,139 1,152 1,164 1,168 1,176 1,204 1,207 1,210 1,217 1,228 1,274 1,277 1,298 1,301 1,309 1,329 1,354 1,357 1,361 1,365 1,369 1,381 1,388 1,391 1,397 1,402 1,409 1,417 1,441 1,493 1,499 1,506 1,515 1,518 1,528 1,538 1,557 1,578 1,692 1,693 1,695 1,706 1,717 1,752 1,757 1,763 1,764 1,779 1,782 1,783 1,788 1,790 1,800 1,807 1,812 1,858 1,867 1,879 1,883 1,909 1,913 1}
{4 1,32 1,39 1,43 1,82 1,123 1,277 1,361 1,398 1,444 1,541 1,607 1,782 1,807 1,895 1,913 1}
{4 1,39 1,55 1,71 1,102 1,136 1,208 1,223 1,226 1,228 1,268 1,277 1,329 1,332 1,347 1,369 1,477 1,541 1,574 1,635 1,724 1,763 1,783 1,796 1,807 1,812 1,883 1,890 1,903 1}
{4 1,6 1,24 1,31 1,37 1,39 1,43 1,46 1,48 1,51 1,55 1,61 1,70 1,82 1,85 1,87 1,88 1,114 1,115 1,134 1,135 1,138 1,140 1,143 1,152 1,160 1,170 1,171 1,179 1,182 1,194 1,197 1,210 1,221 1,228 1,232 1,242 1,245 1,260 1,264 1,267 1,275 1,277 1,281 1,286 1,306 1,311 1,325 1,327 1,328 1,329 1,331 1,353 1,361 1,365 1,369 1,372 1,383 1,387 1,388 1,391 1,402 1,425 1,449 1,456 1,458 1,464 1,470 1,478 1,483 1,491 1,495 1,501 1,503 1,508 1,509 1,510 1,512 1,515 1,528 1,536 1,538 1,541 1,547 1,548 1,551 1,552 1,555 1,567 1,568 1,603 1,626 1,638 1,642 1,645 1,650 1,657 1,667 1,671 1,693 1,696 1,703 1,709 1,714 1,716 1,727 1,741 1,745 1,763 1,779 1,781 1,782 1,783 1,784 1,787 1,790 1,793 1,796 1,807 1,821 1,823 1,834 1,835 1,844 1,849 1,852 1,854 1,858 1,859 1,872 1,873 1,875 1,879 1,883 1,885 1,890 1,902 1,904 1,913 1}
{4 1,6 1,11 1,33 1,39 1,48 1,49 1,51 1,55 1,56 1,61 1,64 1,82 1,87 1,134 1,168 1,177 1,182 1,220 1,233 1,239 1,243 1,249 1,259 1,275 1,277 1,285 1,286 1,316 1,357 1,361 1,369 1,388 1,391 1,402 1,427 1,432 1,441 1,478 1,490 1,495 1,497 1,501 1,509 1,513 1,518 1,528 1,536 1,538 1,552 1,558 1,601 1,615 1,627 1,630 1,642 1,657 1,671 1,714 1,720 1,725 1,755 1,763 1,779 1,782 1,783 1,788 1,796 1,804 1,807 1,834 1,849 1,855 1,859 1,865 1,867 1,873 1,877 1,895 1,896 1,903 1,913 1}
{4 1,16 1,39 1,61 1,70 1,75 1,102 1,115 1,141 1,173 1,180 1,235 1,268 1,271 1,277 1,294 1,321 1,329 1,345 1,347 1,352 1,358 1,369 1,386 1,391 1,399 1,422 1,423 1,448 1,528 1,536 1,538 1,539 1,552 1,572 1,583 1,585 1,590 1,634 1,655 1,656 1,676 1,686 1,781 1,783 1,784 1,785 1,790 1,801 1,804 1,807 1,823 1,854 1,865 1,880 1,883 1}
{4 1,39 1,45 1,52 1,55 1,56 1,58 1,74 1,83 1,85 1,88 1,100 1,118 1,125 1,139 1,152 1,204 1,210 1,217 1,228 1,243 1,260 1,270 1,277 1,286 1,298 1,304 1,309 1,328 1,329 1,338 1,346 1,361 1,365 1,369 1,381 1,388 1,391 1,453 1,468 1,470 1,497 1,499 1,515 1,518 1,528 1,538 1,541 1,552 1,561 1,578 1,606 1,659 1,660 1,667 1,692 1,693 1,706 1,741 1,755 1,757 1,763 1,782 1,783 1,790 1,801 1,807 1,812 1,819 1,833 1,836 1,849 1,852 1,853 1,854 1,869 1,875 1,878 1,895 1,896 1,904 1,913 1}
{4 1,23 1,39 1,41 1,43 1,79 1,87 1,114 1,199 1,204 1,225 1,228 1,270 1,277 1,315 1,328 1,329 1,331 1,339 1,342 1,343 1,360 1,361 1,363 1,369 1,380 1,388 1,391 1,402 1,433 1,453 1,457 1,471 1,477 1,490 1,505 1,509 1,515 1,518 1,522 1,528 1,535 1,536 1,538 1,541 1,548 1,549 1,615 1,657 1,667 1,670 1,683 1,690 1,707 1,709 1,712 1,714 1,741 1,769 1,772 1,782 1,783 1,807 1,831 1,834 1,840 1,867 1,903 1,913 1}
{4 1,19 1,32 1,39 1,43 1,51 1,82 1,83 1,91 1,92 1,123 1,128 1,131 1,134 1,210 1,220 1,222 1,228 1,229 1,240 1,243 1,246 1,259 1,277 1,293 1,300 1,305 1,317 1,329 1,343 1,357 1,358 1,361 1,369 1,388 1,402 1,426 1,454 1,463 1,468 1,477 1,479 1,491 1,493 1,528 1,532 1,536 1,538 1,539 1,541 1,552 1,567 1,569 1,631 1,657 1,667 1,709 1,716 1,739 1,763 1,770 1,779 1,782 1,783 1,784 1,788 1,790 1,793 1,796 1,799 1,807 1,815 1,829 1,832 1,841 1,852 1,858 1,863 1,871 1,877 1,879 1,895 1,909 1}
{4 1,6 1,39 1,43 1,51 1,55 1,74 1,82 1,85 1,92 1,114 1,118 1,123 1,139 1,140 1,169 1,177 1,209 1,213 1,217 1,228 1,268 1,271 1,286 1,298 1,309 1,329 1,334 1,357 1,361 1,365 1,369 1,381 1,388 1,391 1,402 1,434 1,438 1,453 1,457 1,468 1,472 1,497 1,499 1,505 1,518 1,528 1,529 1,541 1,548 1,578 1,660 1,679 1,692 1,695 1,698 1,706 1,719 1,755 1,757 1,779 1,782 1,783 1,788 1,796 1,798 1,807 1,812 1,846 1,852 1,857 1,858 1,861 1,883 1,909 1,913 1}
{82 1,222 1,277 1,280 1,310 1,336 1,361 1,391 1,567 1,691 1,781 1,798 1,879 1,913 1}
{4 1,24 1,27 1,29 1,39 1,43 1,55 1,82 1,91 1,92 1,101 1,105 1,117 1,135 1,195 1,196 1,199 1,203 1,210 1,218 1,243 1,271 1,295 1,303 1,321 1,323 1,328 1,329 1,332 1,345 1,357 1,361 1,365 1,369 1,388 1,417 1,433 1,437 1,443 1,453 1,454 1,458 1,463 1,470 1,491 1,492 1,521 1,528 1,533 1,536 1,538 1,601 1,667 1,679 1,686 1,763 1,775 1,779 1,782 1,783 1,790 1,792 1,796 1,801 1,807 1,814 1,815 1,870 1,873 1,879 1,880 1,883 1,887 1,893 1,895 1,903 1,906 1,909 1}
{4 1,11 1,14 1,16 1,24 1,29 1,33 1,37 1,39 1,51 1,55 1,56 1,71 1,74 1,85 1,88 1,91 1,114 1,118 1,139 1,181 1,189 1,204 1,207 1,217 1,228 1,243 1,277 1,298 1,304 1,308 1,309 1,321 1,329 1,331 1,361 1,365 1,369 1,381 1,388 1,391 1,409 1,467 1,473 1,493 1,497 1,499 1,518 1,521 1,528 1,529 1,538 1,548 1,551 1,552 1,578 1,608 1,692 1,706 1,714 1,757 1,763 1,764 1,782 1,783 1,785 1,790 1,807 1,812 1,820 1,834 1,835 1,846 1,849 1,854 1,859 1,865 1,875 1,879 1,883 1,887 1,904 1,913 1}
{4 1,23 1,39 1,56 1,115 1,123 1,228 1,277 1,286 1,329 1,342 1,361 1,363 1,365 1,388 1,402 1,453 1,477 1,518 1,522 1,535 1,536 1,541 1,548 1,615 1,725 1,764 1,785 1,807 1,877 1,909 1,913 1}
{4 1,24 1,37 1,39 1,51 1,55 1,61 1,80 1,82 1,86 1,92 1,105 1,114 1,115 1,203 1,210 1,228 1,239 1,243 1,252 1,264 1,271 1,272 1,277 1,295 1,300 1,321 1,329 1,332 1,357 1,361 1,365 1,369 1,388 1,391 1,417 1,425 1,433 1,449 1,453 1,460 1,463 1,469 1,470 1,491 1,492 1,515 1,521 1,528 1,529 1,533 1,535 1,539 1,541 1,567 1,576 1,577 1,580 1,583 1,616 1,630 1,631 1,635 1,658 1,659 1,679 1,695 1,709 1,714 1,724 1,746 1,755 1,763 1,764 1,770 1,775 1,782 1,783 1,784 1,790 1,793 1,795 1,796 1,807 1,812 1,814 1,820 1,853 1,854 1,859 1,865 1,867 1,875 1,877 1,879 1,880 1,882 1,883 1,887 1,895 1,901 1,903 1}
{51 1,83 1,121 1,204 1,437 1,528 1,536 1,541 1,567 1,625 1,657 1,714 1,720 1,790 1,798 1,807 1,854 1,867 1,913 1}
{4 1,61 1,96 1,152 1,166 1,388 1,391 1,433 1,491 1,515 1,521 1,528 1,538 1,607 1,716 1,764 1,779 1,783 1,804 1,844 1,854 1,913 1}
{4 1,14 1,24 1,37 1,39 1,41 1,43 1,49 1,55 1,82 1,85 1,114 1,115 1,136 1,175 1,209 1,210 1,228 1,262 1,270 1,277 1,295 1,297 1,300 1,308 1,310 1,318 1,328 1,329 1,332 1,344 1,345 1,357 1,361 1,365 1,369 1,386 1,388 1,389 1,405 1,417 1,439 1,463 1,470 1,477 1,493 1,497 1,505 1,515 1,518 1,521 1,528 1,533 1,536 1,541 1,552 1,553 1,577 1,587 1,625 1,657 1,709 1,763 1,782 1,783 1,786 1,788 1,796 1,804 1,807 1,812 1,833 1,846 1,858 1,863 1,870 1,875 1,879 1,883 1,901 1,909 1}
{0 1,4 1,6 1,11 1,15 1,21 1,24 1,31 1,35 1,39 1,55 1,56 1,61 1,82 1,91 1,104 1,106 1,114 1,115 1,135 1,160 1,195 1,201 1,202 1,204 1,222 1,264 1,277 1,286 1,310 1,321 1,329 1,357 1,361 1,363 1,369 1,382 1,388 1,389 1,391 1,402 1,409 1,413 1,428 1,449 1,453 1,454 1,460 1,470 1,471 1,493 1,501 1,508 1,518 1,524 1,528 1,532 1,536 1,541 1,550 1,552 1,567 1,569 1,618 1,621 1,657 1,666 1,668 1,672 1,674 1,694 1,701 1,703 1,709 1,714 1,716 1,717 1,725 1,728 1,746 1,752 1,765 1,772 1,782 1,783 1,784 1,788 1,790 1,793 1,796 1,804 1,807 1,834 1,835 1,837 1,841 1,846 1,849 1,853 1,854 1,859 1,865 1,867 1,875 1,876 1,879 1,883 1,913 1}
{4 1,6 1,39 1,41 1,56 1,96 1,111 1,123 1,272 1,277 1,288 1,300 1,319 1,361 1,363 1,365 1,369 1,388 1,391 1,420 1,428 1,433 1,451 1,457 1,460 1,466 1,478 1,481 1,528 1,538 1,541 1,601 1,657 1,667 1,715 1,716 1,720 1,756 1,762 1,782 1,783 1,796 1,807 1,847 1,858 1,872 1,883 1,903 1,904 1,909 1,913 1}
{4 1,14 1,19 1,24 1,37 1,39 1,43 1,46 1,51 1,55 1,56 1,61 1,76 1,82 1,83 1,92 1,106 1,114 1,116 1,120 1,123 1,130 1,168 1,177 1,180 1,195 1,204 1,210 1,223 1,225 1,228 1,239 1,243 1,259 1,271 1,286 1,294 1,295 1,300 1,302 1,305 1,307 1,308 1,313 1,317 1,319 1,321 1,324 1,328 1,329 1,338 1,353 1,357 1,361 1,365 1,369 1,386 1,388 1,391 1,398 1,402 1,404 1,407 1,423 1,442 1,453 1,456 1,463 1,470 1,471 1,493 1,496 1,505 1,508 1,510 1,515 1,518 1,520 1,528 1,536 1,538 1,539 1,541 1,545 1,552 1,567 1,585 1,588 1,592 1,604 1,625 1,628 1,657 1,679 1,681 1,682 1,687 1,693 1,709 1,763 1,767 1,779 1,782 1,783 1,784 1,785 1,786 1,790 1,793 1,794 1,796 1,802 1,804 1,807 1,822 1,834 1,835 1,846 1,856 1,863 1,867 1,875 1,877 1,883 1,886 1,893 1,895 1,896 1,909 1,911 1}
{4 1,24 1,39 1,51 1,56 1,61 1,79 1,82 1,114 1,115 1,140 1,218 1,303 1,332 1,333 1,369 1,388 1,391 1,425 1,429 1,433 1,457 1,515 1,518 1,528 1,539 1,551 1,573 1,591 1,601 1,617 1,625 1,646 1,681 1,783 1,790 1,804 1,807 1,863 1,867 1,870 1,872 1,879 1,884 1,904 1,909 1,911 1,913 1}
{4 1,39 1,41 1,49 1,55 1,56 1,61 1,64 1,82 1,87 1,97 1,115 1,146 1,204 1,243 1,245 1,292 1,300 1,317 1,361 1,365 1,369 1,388 1,391 1,420 1,432 1,441 1,457 1,488 1,497 1,501 1,513 1,518 1,528 1,534 1,536 1,539 1,552 1,567 1,582 1,642 1,657 1,733 1,750 1,782 1,783 1,790 1,793 1,796 1,798 1,804 1,807 1,820 1,847 1,859 1,867 1,869 1,875 1,882 1,883 1,909 1,913 1}
{4 1,39 1,55 1,61 1,85 1,114 1,115 1,117 1,125 1,160 1,171 1,180 1,207 1,228 1,238 1,265 1,270 1,277 1,332 1,361 1,369 1,479 1,541 1,583 1,590 1,657 1,661 1,672 1,677 1,680 1,781 1,783 1,796 1,807 1,817 1,867 1,903 1}
{4 1,18 1,39 1,52 1,97 1,162 1,168 1,176 1,205 1,260 1,267 1,270 1,277 1,321 1,328 1,332 1,365 1,369 1,386 1,388 1,391 1,419 1,425 1,489 1,491 1,497 1,506 1,509 1,520 1,521 1,528 1,532 1,541 1,557 1,603 1,616 1,647 1,659 1,660 1,669 1,716 1,730 1,745 1,763 1,779 1,782 1,783 1,788 1,796 1,807 1,840 1,854 1,875 1,898 1,903 1,906 1,913 1}
{4 1,6 1,21 1,24 1,35 1,39 1,55 1,61 1,82 1,85 1,156 1,170 1,196 1,222 1,277 1,278 1,311 1,317 1,335 1,342 1,361 1,369 1,388 1,391 1,393 1,405 1,416 1,425 1,501 1,528 1,548 1,552 1,589 1,592 1,616 1,620 1,625 1,711 1,725 1,743 1,763 1,772 1,782 1,783 1,790 1,796 1,807 1,819 1,855 1,869 1,893 1,913 1}
{4 1,24 1,39 1,55 1,102 1,117 1,131 1,152 1,160 1,171 1,180 1,228 1,238 1,265 1,344 1,369 1,405 1,455 1,528 1,541 1,552 1,661 1,672 1,683 1,764 1,785 1,798 1}
{4 1,6 1,43 1,45 1,47 1,56 1,61 1,85 1,87 1,103 1,123 1,181 1,201 1,204 1,270 1,328 1,331 1,361 1,377 1,391 1,409 1,470 1,491 1,515 1,528 1,552 1,573 1,633 1,657 1,660 1,715 1,775 1,783 1,788 1,804 1,807 1,831 1,872 1,873 1,883 1,890 1,905 1,913 1}
{24 1,39 1,51 1,61 1,117 1,143 1,171 1,228 1,277 1,390 1,463 1,528 1,548 1,565 1,620 1,631 1,651 1,660 1,782 1,783 1,784 1,788 1,798 1,807 1,852 1,872 1,877 1,895 1,913 1}
{4 1,6 1,11 1,14 1,17 1,22 1,24 1,32 1,35 1,36 1,37 1,39 1,43 1,44 1,45 1,51 1,53 1,54 1,56 1,61 1,67 1,70 1,71 1,75 1,76 1,78 1,82 1,85 1,86 1,87 1,92 1,94 1,97 1,114 1,115 1,120 1,123 1,128 1,135 1,136 1,149 1,153 1,180 1,186 1,187 1,196 1,207 1,208 1,209 1,210 1,211 1,212 1,213 1,222 1,228 1,233 1,235 1,240 1,241 1,243 1,244 1,249 1,252 1,260 1,264 1,267 1,268 1,271 1,277 1,279 1,281 1,284 1,294 1,295 1,300 1,301 1,302 1,303 1,304 1,305 1,307 1,318 1,321 1,322 1,324 1,328 1,329 1,332 1,335 1,344 1,345 1,347 1,348 1,354 1,357 1,361 1,363 1,365 1,369 1,373 1,378 1,386 1,388 1,390 1,391 1,399 1,402 1,409 1,411 1,417 1,423 1,425 1,428 1,433 1,443 1,445 1,448 1,453 1,457 1,459 1,461 1,470 1,471 1,472 1,478 1,491 1,495 1,497 1,508 1,515 1,518 1,520 1,521 1,528 1,529 1,535 1,536 1,539 1,541 1,548 1,551 1,575 1,576 1,595 1,600 1,601 1,603 1,629 1,630 1,643 1,655 1,657 1,659 1,667 1,675 1,676 1,679 1,680 1,681 1,687 1,694 1,695 1,696 1,703 1,708 1,709 1,714 1,716 1,736 1,745 1,746 1,750 1,755 1,758 1,763 1,769 1,773 1,779 1,780 1,782 1,783 1,784 1,788 1,790 1,792 1,793 1,796 1,798 1,802 1,804 1,807 1,810 1,812 1,816 1,834 1,838 1,844 1,846 1,853 1,854 1,856 1,859 1,860 1,863 1,865 1,867 1,868 1,869 1,871 1,872 1,875 1,877 1,879 1,880 1,883 1,887 1,894 1,895 1,902 1,903 1,907 1,909 1,910 1}
{4 1,39 1,55 1,56 1,74 1,76 1,82 1,123 1,152 1,171 1,204 1,228 1,257 1,277 1,298 1,309 1,328 1,361 1,365 1,369 1,388 1,391 1,426 1,427 1,471 1,520 1,528 1,538 1,548 1,559 1,567 1,578 1,628 1,646 1,647 1,660 1,699 1,709 1,738 1,779 1,782 1,783 1,788 1,807 1,841 1,842 1,865 1,867 1,883 1,893 1,913 1}
{4 1,6 1,7 1,32 1,37 1,39 1,51 1,55 1,61 1,62 1,82 1,86 1,87 1,96 1,145 1,168 1,170 1,171 1,181 1,204 1,213 1,228 1,232 1,243 1,271 1,277 1,286 1,288 1,297 1,307 1,308 1,328 1,329 1,339 1,361 1,369 1,388 1,391 1,402 1,408 1,416 1,425 1,432 1,433 1,453 1,478 1,481 1,490 1,495 1,501 1,505 1,515 1,526 1,528 1,536 1,539 1,541 1,543 1,548 1,552 1,559 1,567 1,570 1,580 1,588 1,609 1,625 1,652 1,653 1,657 1,672 1,707 1,721 1,725 1,755 1,756 1,779 1,782 1,783 1,788 1,796 1,802 1,807 1,835 1,836 1,843 1,854 1,859 1,862 1,863 1,867 1,872 1,875 1,876 1,879 1,883 1,894 1,895 1,909 1,913 1}
{4 1,24 1,29 1,35 1,39 1,51 1,56 1,61 1,71 1,75 1,85 1,106 1,114 1,115 1,123 1,136 1,153 1,166 1,174 1,177 1,182 1,187 1,188 1,206 1,210 1,211 1,229 1,245 1,264 1,277 1,294 1,300 1,304 1,313 1,328 1,329 1,331 1,332 1,344 1,345 1,350 1,361 1,365 1,369 1,386 1,388 1,397 1,417 1,425 1,426 1,491 1,495 1,515 1,528 1,529 1,530 1,536 1,538 1,541 1,548 1,552 1,553 1,561 1,577 1,618 1,632 1,656 1,667 1,680 1,682 1,701 1,709 1,714 1,735 1,758 1,763 1,769 1,770 1,779 1,782 1,783 1,793 1,795 1,796 1,807 1,822 1,828 1,865 1,879 1,903 1,904 1}
{55 1,61 1,152 1,210 1,227 1,267 1,329 1,345 1,357 1,361 1,369 1,388 1,391 1,416 1,467 1,495 1,497 1,515 1,528 1,538 1,681 1,746 1,750 1,782 1,796 1,807 1,910 1,913 1}
{4 1,6 1,15 1,29 1,37 1,39 1,54 1,55 1,60 1,84 1,86 1,95 1,114 1,122 1,152 1,155 1,169 1,204 1,214 1,225 1,245 1,277 1,317 1,321 1,328 1,329 1,332 1,341 1,345 1,361 1,369 1,373 1,383 1,388 1,390 1,409 1,411 1,434 1,441 1,464 1,468 1,470 1,490 1,491 1,495 1,500 1,501 1,504 1,508 1,518 1,528 1,536 1,538 1,548 1,609 1,616 1,622 1,627 1,657 1,660 1,673 1,703 1,712 1,714 1,753 1,761 1,763 1,781 1,783 1,785 1,790 1,796 1,807 1,811 1,823 1,831 1,834 1,852 1,856 1,872 1,883 1,895 1,909 1,913 1}
{4 1,39 1,51 1,55 1,76 1,82 1,98 1,109 1,152 1,195 1,203 1,226 1,246 1,277 1,295 1,353 1,361 1,365 1,369 1,392 1,422 1,433 1,437 1,448 1,457 1,503 1,514 1,515 1,518 1,528 1,539 1,541 1,548 1,565 1,631 1,703 1,779 1,782 1,783 1,790 1,802 1,807 1,859 1,866 1,879 1,881 1,883 1,895 1}
{4 1,6 1,10 1,39 1,51 1,55 1,61 1,101 1,107 1,115 1,126 1,210 1,228 1,243 1,245 1,315 1,334 1,345 1,361 1,369 1,388 1,444 1,470 1,497 1,515 1,528 1,536 1,538 1,559 1,578 1,705 1,750 1,804 1,807 1,823 1,879 1,883 1,913 1}
{4 1,23 1,39 1,51 1,56 1,87 1,91 1,112 1,115 1,123 1,180 1,204 1,211 1,228 1,277 1,286 1,329 1,336 1,342 1,361 1,363 1,365 1,369 1,385 1,388 1,402 1,453 1,477 1,518 1,521 1,522 1,528 1,535 1,536 1,541 1,548 1,552 1,605 1,615 1,620 1,647 1,725 1,764 1,783 1,785 1,788 1,794 1,807 1,865 1,872 1,876 1,877 1,883 1,895 1,909 1,913 1}
{4 1,5 1,7 1,24 1,29 1,41 1,43 1,46 1,55 1,61 1,82 1,85 1,109 1,114 1,115 1,152 1,169 1,171 1,219 1,228 1,264 1,277 1,328 1,329 1,358 1,361 1,369 1,388 1,391 1,425 1,431 1,433 1,437 1,445 1,470 1,478 1,491 1,497 1,498 1,510 1,514 1,528 1,536 1,548 1,552 1,576 1,630 1,636 1,657 1,659 1,667 1,676 1,694 1,709 1,763 1,773 1,782 1,783 1,796 1,807 1,828 1,834 1,854 1,858 1,859 1,861 1,887 1,895 1,902 1}
{4 1,6 1,10 1,11 1,19 1,24 1,29 1,37 1,39 1,43 1,47 1,51 1,52 1,55 1,56 1,61 1,65 1,67 1,74 1,82 1,83 1,84 1,85 1,86 1,93 1,106 1,114 1,115 1,123 1,129 1,134 1,146 1,147 1,161 1,168 1,195 1,199 1,204 1,207 1,210 1,223 1,228 1,229 1,230 1,232 1,242 1,248 1,250 1,253 1,255 1,267 1,268 1,271 1,277 1,279 1,286 1,292 1,303 1,304 1,309 1,316 1,324 1,328 1,329 1,339 1,344 1,354 1,357 1,361 1,363 1,364 1,365 1,368 1,369 1,382 1,388 1,391 1,392 1,402 1,407 1,409 1,415 1,422 1,425 1,426 1,428 1,436 1,437 1,449 1,453 1,456 1,457 1,458 1,463 1,467 1,470 1,478 1,491 1,493 1,497 1,510 1,515 1,518 1,520 1,528 1,532 1,536 1,538 1,539 1,541 1,548 1,549 1,551 1,552 1,553 1,559 1,560 1,561 1,567 1,603 1,604 1,613 1,615 1,618 1,621 1,625 1,627 1,630 1,637 1,642 1,645 1,647 1,657 1,659 1,671 1,672 1,673 1,674 1,677 1,679 1,680 1,681 1,684 1,694 1,695 1,703 1,709 1,714 1,718 1,720 1,746 1,749 1,752 1,755 1,763 1,764 1,765 1,767 1,768 1,775 1,777 1,779 1,782 1,783 1,784 1,785 1,788 1,790 1,791 1,792 1,793 1,794 1,796 1,798 1,799 1,807 1,818 1,821 1,828 1,829 1,832 1,838 1,844 1,845 1,854 1,858 1,859 1,862 1,865 1,867 1,870 1,871 1,872 1,875 1,876 1,877 1,879 1,883 1,890 1,895 1,909 1,911 1,913 1}
{55 1,166 1,228 1,230 1,237 1,238 1,365 1,369 1,389 1,433 1,480 1,647 1,657 1,711 1,763 1,782 1,783 1,836 1,849 1,909 1,913 1}
{4 1,15 1,28 1,39 1,49 1,51 1,55 1,58 1,72 1,85 1,89 1,110 1,141 1,171 1,178 1,183 1,196 1,220 1,223 1,228 1,271 1,281 1,286 1,295 1,307 1,329 1,344 1,345 1,361 1,369 1,386 1,388 1,417 1,460 1,497 1,536 1,580 1,586 1,635 1,657 1,676 1,695 1,724 1,763 1,773 1,783 1,793 1,796 1,801 1,807 1,823 1,834 1,837 1,846 1,854 1,867 1,869 1,874 1,877 1,882 1,883 1}
{4 1,6 1,29 1,31 1,39 1,43 1,45 1,55 1,82 1,104 1,138 1,152 1,204 1,207 1,210 1,220 1,228 1,277 1,308 1,335 1,361 1,369 1,391 1,409 1,457 1,478 1,497 1,518 1,528 1,539 1,628 1,672 1,696 1,714 1,715 1,763 1,782 1,796 1,800 1,807 1,834 1,857 1,883 1,895 1,896 1,913 1}
{4 1,39 1,55 1,56 1,75 1,94 1,115 1,166 1,167 1,168 1,169 1,209 1,211 1,228 1,237 1,238 1,286 1,312 1,326 1,337 1,357 1,369 1,386 1,389 1,391 1,402 1,433 1,480 1,495 1,528 1,536 1,609 1,623 1,657 1,709 1,711 1,732 1,763 1,767 1,772 1,779 1,782 1,783 1,815 1,825 1,849 1,854 1,858 1,895 1,909 1,912 1,913 1}
{4 1,16 1,19 1,24 1,31 1,35 1,39 1,43 1,46 1,51 1,55 1,56 1,61 1,72 1,82 1,83 1,85 1,88 1,92 1,98 1,114 1,115 1,116 1,187 1,188 1,204 1,208 1,211 1,224 1,228 1,232 1,243 1,264 1,268 1,271 1,277 1,294 1,318 1,328 1,329 1,332 1,336 1,345 1,347 1,348 1,350 1,361 1,365 1,369 1,379 1,388 1,389 1,391 1,417 1,426 1,431 1,433 1,442 1,443 1,453 1,455 1,456 1,512 1,518 1,529 1,530 1,538 1,539 1,541 1,553 1,583 1,585 1,586 1,603 1,611 1,618 1,619 1,638 1,657 1,659 1,662 1,682 1,695 1,699 1,709 1,716 1,719 1,739 1,746 1,755 1,763 1,769 1,779 1,782 1,783 1,788 1,790 1,795 1,796 1,799 1,807 1,846 1,854 1,865 1,872 1,875 1,879 1,895 1,896 1,903 1,904 1}
{29 1,32 1,39 1,44 1,45 1,51 1,82 1,107 1,115 1,123 1,133 1,163 1,222 1,268 1,277 1,329 1,334 1,360 1,361 1,369 1,382 1,433 1,455 1,470 1,473 1,525 1,528 1,536 1,541 1,555 1,592 1,604 1,673 1,683 1,690 1,780 1,783 1,796 1,807 1,848 1,849 1,883 1,890 1,895 1,909 1,910 1,913 1}
{24 1,39 1,45 1,51 1,59 1,61 1,70 1,152 1,186 1,207 1,210 1,259 1,307 1,361 1,385 1,388 1,431 1,442 1,465 1,536 1,783 1,796 1,807 1,842 1,859 1,867 1,872 1,883 1,913 1}
{4 1,24 1,55 1,61 1,92 1,123 1,135 1,146 1,177 1,228 1,286 1,294 1,295 1,307 1,329 1,361 1,369 1,388 1,391 1,427 1,470 1,518 1,541 1,548 1,576 1,577 1,583 1,623 1,656 1,675 1,677 1,681 1,764 1,769 1,770 1,779 1,782 1,783 1,790 1,796 1,807 1,854 1,869 1,875 1,882 1,883 1,895 1}
{4 1,6 1,11 1,14 1,24 1,28 1,29 1,32 1,33 1,35 1,37 1,39 1,43 1,45 1,46 1,51 1,52 1,55 1,56 1,57 1,61 1,65 1,67 1,82 1,83 1,85 1,87 1,89 1,93 1,100 1,108 1,114 1,115 1,117 1,123 1,125 1,130 1,135 1,138 1,140 1,144 1,152 1,153 1,156 1,160 1,164 1,168 1,170 1,194 1,197 1,204 1,205 1,207 1,210 1,211 1,220 1,221 1,223 1,227 1,230 1,231 1,241 1,242 1,249 1,267 1,274 1,275 1,276 1,277 1,280 1,281 1,286 1,300 1,302 1,304 1,308 1,321 1,326 1,328 1,329 1,331 1,332 1,334 1,339 1,357 1,360 1,361 1,365 1,369 1,373 1,375 1,376 1,382 1,386 1,388 1,391 1,392 1,402 1,409 1,418 1,425 1,430 1,433 1,434 1,437 1,442 1,444 1,449 1,453 1,456 1,459 1,468 1,469 1,470 1,471 1,473 1,475 1,487 1,491 1,493 1,494 1,496 1,505 1,508 1,515 1,516 1,517 1,518 1,519 1,520 1,528 1,536 1,538 1,539 1,541 1,548 1,549 1,552 1,553 1,559 1,567 1,587 1,588 1,592 1,601 1,604 1,611 1,616 1,625 1,627 1,641 1,642 1,657 1,658 1,659 1,667 1,668 1,669 1,672 1,679 1,682 1,704 1,709 1,714 1,727 1,737 1,739 1,745 1,748 1,749 1,752 1,755 1,758 1,760 1,761 1,763 1,768 1,775 1,776 1,778 1,779 1,782 1,783 1,784 1,786 1,788 1,789 1,790 1,792 1,793 1,796 1,807 1,821 1,822 1,834 1,835 1,836 1,837 1,838 1,846 1,852 1,854 1,859 1,863 1,865 1,867 1,869 1,870 1,872 1,875 1,877 1,879 1,883 1,885 1,890 1,895 1,896 1,907 1,909 1,910 1,911 1,913 1}
{4 1,37 1,39 1,55 1,56 1,166 1,168 1,169 1,183 1,204 1,228 1,237 1,271 1,273 1,286 1,312 1,357 1,361 1,365 1,369 1,379 1,386 1,388 1,389 1,391 1,402 1,415 1,420 1,495 1,497 1,528 1,657 1,709 1,763 1,767 1,782 1,783 1,796 1,807 1,825 1,836 1,851 1,852 1,865 1,877 1,878 1,895 1,909 1,911 1,913 1}
{7 1,56 1,82 1,114 1,151 1,228 1,264 1,336 1,365 1,391 1,476 1,479 1,497 1,518 1,541 1,576 1,666 1,714 1,782 1,783 1,790 1,796 1,812 1,834 1,854 1,865 1,895 1}
{4 1,15 1,21 1,24 1,29 1,37 1,39 1,43 1,45 1,55 1,56 1,93 1,114 1,117 1,121 1,164 1,177 1,183 1,207 1,223 1,286 1,300 1,329 1,332 1,336 1,344 1,345 1,361 1,369 1,388 1,391 1,404 1,409 1,428 1,433 1,439 1,450 1,497 1,513 1,528 1,541 1,548 1,644 1,650 1,680 1,682 1,694 1,709 1,718 1,782 1,785 1,788 1,796 1,807 1,819 1,828 1,834 1,846 1,860 1,883 1,903 1,913 1}
{4 1,15 1,37 1,39 1,45 1,51 1,55 1,56 1,61 1,82 1,115 1,123 1,126 1,149 1,164 1,171 1,192 1,199 1,204 1,211 1,222 1,228 1,230 1,238 1,277 1,301 1,304 1,315 1,328 1,329 1,331 1,335 1,357 1,361 1,369 1,377 1,388 1,391 1,416 1,429 1,430 1,433 1,441 1,450 1,461 1,463 1,470 1,491 1,493 1,515 1,528 1,536 1,537 1,541 1,548 1,552 1,605 1,657 1,679 1,697 1,711 1,716 1,761 1,764 1,782 1,783 1,788 1,792 1,796 1,807 1,811 1,837 1,846 1,867 1,872 1,879 1,883 1,884 1,913 1}
{4 1,37 1,45 1,62 1,70 1,76 1,109 1,114 1,115 1,207 1,261 1,332 1,344 1,369 1,388 1,409 1,518 1,536 1,541 1,558 1,628 1,659 1,782 1,783 1,788 1,807 1,813 1,815 1,843 1,854 1,870 1,875 1}
{4 1,35 1,39 1,45 1,51 1,56 1,61 1,82 1,85 1,92 1,115 1,152 1,170 1,196 1,201 1,202 1,223 1,229 1,235 1,243 1,307 1,321 1,328 1,329 1,354 1,361 1,365 1,369 1,388 1,403 1,411 1,425 1,426 1,473 1,474 1,482 1,497 1,505 1,509 1,515 1,518 1,520 1,528 1,538 1,539 1,541 1,548 1,550 1,564 1,567 1,570 1,592 1,622 1,639 1,654 1,657 1,660 1,672 1,691 1,763 1,764 1,782 1,783 1,791 1,793 1,796 1,807 1,823 1,829 1,854 1,859 1,865 1,872 1,875 1,879 1,883 1,885 1,893 1,895 1,909 1,911 1,913 1}
{4 1,14 1,23 1,39 1,43 1,55 1,82 1,87 1,95 1,114 1,153 1,225 1,228 1,270 1,271 1,277 1,291 1,315 1,329 1,332 1,339 1,360 1,361 1,369 1,388 1,391 1,434 1,471 1,490 1,491 1,497 1,505 1,515 1,522 1,536 1,538 1,657 1,683 1,690 1,707 1,709 1,782 1,783 1,793 1,800 1,807 1,821 1,834 1,867 1,880 1,903 1,913 1}
{22 1,51 1,61 1,66 1,95 1,162 1,171 1,180 1,188 1,228 1,241 1,272 1,277 1,286 1,296 1,308 1,339 1,369 1,374 1,377 1,388 1,391 1,393 1,396 1,417 1,442 1,479 1,500 1,514 1,562 1,565 1,585 1,641 1,744 1,745 1,783 1,795 1,807 1,811 1,826 1,869 1,883 1}
{4 1,5 1,15 1,29 1,39 1,45 1,47 1,51 1,56 1,82 1,83 1,114 1,123 1,138 1,204 1,210 1,220 1,222 1,227 1,275 1,285 1,300 1,328 1,361 1,365 1,369 1,386 1,388 1,391 1,409 1,432 1,455 1,457 1,463 1,468 1,469 1,483 1,491 1,508 1,520 1,528 1,536 1,623 1,638 1,667 1,670 1,680 1,714 1,715 1,763 1,779 1,782 1,783 1,786 1,789 1,790 1,807 1,837 1,867 1,871 1,872 1,873 1,879 1,883 1,891 1,895 1,913 1}
{4 1,29 1,34 1,37 1,39 1,45 1,46 1,51 1,56 1,61 1,88 1,114 1,115 1,126 1,149 1,152 1,161 1,164 1,171 1,195 1,199 1,210 1,216 1,220 1,228 1,238 1,273 1,277 1,278 1,283 1,286 1,300 1,304 1,308 1,324 1,326 1,329 1,331 1,335 1,357 1,361 1,369 1,380 1,388 1,391 1,402 1,404 1,429 1,430 1,439 1,450 1,453 1,457 1,463 1,470 1,482 1,493 1,495 1,501 1,509 1,518 1,528 1,536 1,539 1,549 1,552 1,567 1,603 1,605 1,622 1,629 1,658 1,697 1,702 1,711 1,728 1,752 1,755 1,761 1,762 1,763 1,782 1,783 1,790 1,796 1,802 1,803 1,807 1,811 1,836 1,846 1,863 1,867 1,872 1,875 1,876 1,879 1,893 1,895 1,907 1,913 1}
{4 1,24 1,31 1,39 1,51 1,55 1,56 1,61 1,70 1,72 1,76 1,82 1,85 1,86 1,91 1,92 1,114 1,132 1,168 1,170 1,180 1,207 1,211 1,213 1,228 1,243 1,268 1,277 1,296 1,303 1,321 1,328 1,329 1,331 1,332 1,344 1,345 1,347 1,350 1,353 1,361 1,369 1,378 1,388 1,391 1,417 1,426 1,434 1,435 1,439 1,443 1,457 1,463 1,466 1,470 1,477 1,481 1,491 1,493 1,497 1,500 1,504 1,509 1,518 1,520 1,521 1,528 1,538 1,539 1,541 1,548 1,552 1,553 1,567 1,583 1,656 1,657 1,660 1,676 1,703 1,746 1,779 1,782 1,783 1,784 1,788 1,790 1,793 1,796 1,801 1,804 1,805 1,807 1,854 1,869 1,873 1,875 1,879 1,883 1,901 1,903 1,904 1,909 1}
{0 1,4 1,32 1,37 1,39 1,43 1,54 1,55 1,56 1,82 1,91 1,93 1,114 1,123 1,128 1,158 1,165 1,195 1,204 1,210 1,236 1,245 1,277 1,328 1,329 1,339 1,361 1,365 1,369 1,376 1,377 1,388 1,391 1,392 1,409 1,410 1,444 1,453 1,478 1,493 1,497 1,518 1,526 1,528 1,536 1,538 1,541 1,554 1,589 1,657 1,667 1,696 1,752 1,763 1,764 1,766 1,782 1,783 1,789 1,790 1,793 1,796 1,804 1,807 1,859 1,867 1,879 1,895 1,909 1,913 1}
{4 1,37 1,45 1,46 1,55 1,114 1,115 1,172 1,179 1,183 1,210 1,224 1,228 1,233 1,271 1,273 1,277 1,299 1,335 1,361 1,365 1,369 1,386 1,391 1,409 1,415 1,453 1,471 1,497 1,510 1,528 1,536 1,628 1,632 1,638 1,719 1,755 1,763 1,782 1,783 1,784 1,788 1,796 1,807 1,826 1,851 1,854 1,860 1,865 1,870 1,878 1,883 1,895 1,909 1,911 1,913 1}
{4 1,6 1,11 1,30 1,39 1,41 1,55 1,56 1,61 1,82 1,91 1,93 1,114 1,195 1,208 1,210 1,228 1,264 1,270 1,271 1,277 1,285 1,301 1,308 1,310 1,318 1,329 1,332 1,361 1,369 1,407 1,425 1,454 1,455 1,469 1,492 1,508 1,518 1,528 1,559 1,574 1,600 1,662 1,681 1,682 1,703 1,709 1,714 1,744 1,745 1,763 1,782 1,783 1,786 1,790 1,807 1,834 1,846 1,858 1,859 1,880 1,883 1,895 1,903 1,904 1}
{6 1,123 1,152 1,197 1,221 1,327 1,329 1,361 1,456 1,497 1,515 1,637 1,657 1,727 1,745 1,763 1,783 1,807 1,877 1,909 1,913 1}
{4 1,11 1,29 1,39 1,51 1,55 1,56 1,61 1,65 1,75 1,82 1,94 1,97 1,114 1,123 1,166 1,167 1,168 1,170 1,176 1,183 1,194 1,204 1,210 1,211 1,228 1,233 1,239 1,271 1,273 1,277 1,304 1,313 1,328 1,329 1,336 1,337 1,361 1,365 1,369 1,388 1,389 1,391 1,392 1,415 1,416 1,420 1,425 1,468 1,495 1,497 1,520 1,528 1,548 1,553 1,567 1,622 1,644 1,681 1,695 1,728 1,732 1,763 1,775 1,782 1,783 1,786 1,788 1,790 1,793 1,796 1,807 1,815 1,820 1,847 1,851 1,865 1,875 1,878 1,879 1,891 1,895 1,909 1,911 1,912 1,913 1}
{4 1,11 1,39 1,55 1,114 1,115 1,196 1,228 1,240 1,328 1,361 1,369 1,388 1,391 1,455 1,469 1,541 1,591 1,657 1,662 1,763 1,782 1,783 1,791 1,793 1,807 1,809 1,854 1}
{4 1,5 1,17 1,31 1,32 1,39 1,41 1,51 1,55 1,56 1,61 1,82 1,97 1,114 1,123 1,148 1,152 1,168 1,176 1,204 1,257 1,277 1,302 1,321 1,329 1,333 1,361 1,365 1,369 1,388 1,391 1,392 1,402 1,426 1,427 1,441 1,442 1,469 1,471 1,497 1,509 1,515 1,528 1,538 1,541 1,548 1,552 1,562 1,567 1,646 1,647 1,657 1,679 1,694 1,709 1,779 1,782 1,783 1,788 1,792 1,800 1,807 1,833 1,834 1,858 1,867 1,869 1,879 1,885 1,893 1,895 1,913 1}
{4 1,6 1,24 1,39 1,51 1,61 1,75 1,85 1,86 1,89 1,114 1,156 1,167 1,168 1,194 1,222 1,239 1,264 1,271 1,321 1,329 1,345 1,358 1,361 1,365 1,388 1,391 1,490 1,491 1,495 1,518 1,528 1,548 1,657 1,701 1,714 1,725 1,752 1,758 1,762 1,767 1,779 1,782 1,783 1,796 1,807 1,816 1,854 1,875 1,883 1,890 1,895 1,913 1}
{6 1,24 1,32 1,39 1,51 1,92 1,114 1,204 1,222 1,329 1,361 1,365 1,369 1,439 1,470 1,495 1,538 1,541 1,560 1,575 1,577 1,592 1,625 1,645 1,745 1,768 1,775 1,782 1,783 1,785 1,786 1,791 1,793 1,807 1,836 1,875 1,879 1,909 1}
{24 1,32 1,43 1,51 1,55 1,61 1,123 1,152 1,181 1,183 1,271 1,327 1,361 1,369 1,388 1,497 1,509 1,515 1,528 1,531 1,553 1,588 1,601 1,669 1,731 1,740 1,783 1,788 1,790 1,796 1,867 1,869 1,872 1,913 1}
{24 1,39 1,45 1,51 1,55 1,59 1,61 1,70 1,152 1,186 1,207 1,210 1,259 1,307 1,361 1,369 1,388 1,431 1,442 1,465 1,536 1,783 1,796 1,807 1,821 1,859 1,867 1,872 1,883 1,913 1}
{37 1,55 1,228 1,243 1,369 1,455 1,662 1,781 1,782 1,800 1,854 1,863 1}
{46 1,204 1,227 1,305 1,329 1,335 1,361 1,365 1,386 1,468 1,494 1,528 1,564 1,716 1,782 1,783 1,796 1,807 1,883 1,913 1}
{4 1,55 1,61 1,62 1,86 1,145 1,171 1,181 1,213 1,228 1,243 1,286 1,297 1,307 1,328 1,329 1,339 1,361 1,369 1,380 1,385 1,391 1,515 1,528 1,536 1,567 1,625 1,657 1,725 1,772 1,782 1,783 1,788 1,796 1,807 1,835 1,842 1,859 1,867 1,879 1,883 1,894 1,913 1}
{4 1,6 1,11 1,14 1,15 1,16 1,24 1,26 1,28 1,30 1,31 1,32 1,37 1,39 1,43 1,51 1,53 1,54 1,55 1,56 1,57 1,61 1,62 1,66 1,70 1,71 1,73 1,74 1,76 1,82 1,83 1,85 1,86 1,87 1,88 1,91 1,94 1,97 1,105 1,114 1,115 1,123 1,127 1,128 1,134 1,135 1,136 1,145 1,146 1,148 1,151 1,154 1,161 1,162 1,168 1,169 1,170 1,173 1,177 1,180 1,186 1,187 1,196 1,199 1,204 1,207 1,208 1,210 1,211 1,213 1,222 1,223 1,224 1,228 1,233 1,235 1,239 1,242 1,243 1,244 1,259 1,262 1,264 1,266 1,267 1,277 1,282 1,284 1,286 1,292 1,294 1,300 1,302 1,303 1,304 1,305 1,306 1,308 1,310 1,313 1,318 1,319 1,321 1,323 1,328 1,329 1,332 1,333 1,339 1,344 1,345 1,347 1,348 1,349 1,354 1,357 1,361 1,365 1,369 1,383 1,388 1,389 1,391 1,402 1,409 1,412 1,423 1,426 1,428 1,433 1,434 1,436 1,437 1,439 1,441 1,442 1,449 1,451 1,453 1,454 1,455 1,457 1,468 1,471 1,478 1,491 1,492 1,493 1,497 1,506 1,508 1,509 1,510 1,515 1,518 1,519 1,520 1,521 1,523 1,524 1,528 1,529 1,530 1,533 1,536 1,538 1,539 1,541 1,552 1,561 1,565 1,574 1,575 1,577 1,583 1,584 1,585 1,586 1,588 1,590 1,592 1,596 1,597 1,600 1,601 1,618 1,621 1,623 1,625 1,630 1,632 1,634 1,638 1,643 1,647 1,656 1,657 1,659 1,661 1,667 1,675 1,676 1,679 1,681 1,695 1,698 1,701 1,702 1,703 1,708 1,709 1,713 1,714 1,715 1,716 1,731 1,734 1,740 1,744 1,745 1,746 1,751 1,752 1,763 1,764 1,769 1,770 1,773 1,775 1,779 1,782 1,783 1,785 1,786 1,788 1,789 1,790 1,792 1,793 1,796 1,797 1,798 1,799 1,804 1,807 1,809 1,811 1,812 1,814 1,815 1,823 1,834 1,837 1,841 1,846 1,849 1,851 1,854 1,856 1,858 1,859 1,863 1,867 1,869 1,870 1,872 1,873 1,875 1,876 1,877 1,879 1,880 1,881 1,883 1,887 1,902 1,903 1,904 1,908 1,909 1,911 1}
{4 1,37 1,39 1,51 1,56 1,61 1,67 1,82 1,84 1,106 1,114 1,115 1,123 1,148 1,152 1,181 1,199 1,204 1,228 1,232 1,257 1,266 1,271 1,277 1,326 1,328 1,352 1,361 1,365 1,366 1,369 1,386 1,388 1,391 1,424 1,425 1,426 1,433 1,470 1,471 1,491 1,493 1,496 1,515 1,518 1,520 1,521 1,528 1,532 1,536 1,538 1,539 1,541 1,548 1,558 1,567 1,588 1,646 1,647 1,679 1,681 1,709 1,774 1,779 1,782 1,783 1,788 1,796 1,807 1,823 1,834 1,867 1,869 1,871 1,883 1,893 1,909 1,911 1,913 1}
{4 1,6 1,14 1,24 1,39 1,42 1,55 1,58 1,61 1,82 1,95 1,114 1,152 1,153 1,166 1,177 1,208 1,228 1,270 1,271 1,277 1,291 1,307 1,329 1,331 1,332 1,337 1,344 1,361 1,365 1,369 1,386 1,388 1,391 1,434 1,452 1,459 1,460 1,468 1,475 1,488 1,491 1,495 1,497 1,505 1,518 1,528 1,536 1,538 1,542 1,603 1,619 1,655 1,657 1,669 1,710 1,732 1,763 1,779 1,782 1,783 1,786 1,793 1,800 1,807 1,815 1,821 1,825 1,852 1,865 1,869 1,880 1,890 1,906 1,909 1,912 1,913 1}
{4 1,11 1,39 1,56 1,61 1,78 1,82 1,102 1,115 1,120 1,122 1,123 1,152 1,177 1,196 1,213 1,243 1,268 1,273 1,274 1,277 1,294 1,305 1,310 1,329 1,332 1,342 1,344 1,347 1,353 1,365 1,369 1,386 1,428 1,435 1,436 1,455 1,476 1,490 1,528 1,529 1,536 1,538 1,552 1,574 1,647 1,655 1,656 1,657 1,667 1,668 1,677 1,683 1,685 1,695 1,714 1,763 1,782 1,783 1,785 1,786 1,788 1,790 1,798 1,804 1,807 1,823 1,837 1,854 1,859 1,864 1,865 1,883 1,911 1}
{4 1,13 1,24 1,26 1,37 1,39 1,42 1,43 1,56 1,82 1,114 1,123 1,128 1,130 1,143 1,162 1,199 1,204 1,207 1,213 1,227 1,243 1,245 1,275 1,277 1,300 1,316 1,328 1,329 1,361 1,363 1,365 1,369 1,375 1,388 1,391 1,433 1,483 1,491 1,494 1,496 1,497 1,505 1,506 1,518 1,528 1,536 1,538 1,541 1,560 1,567 1,615 1,616 1,617 1,647 1,657 1,680 1,691 1,693 1,699 1,714 1,720 1,728 1,779 1,782 1,783 1,785 1,786 1,790 1,796 1,807 1,817 1,834 1,858 1,869 1,877 1,878 1,879 1,884 1,909 1,913 1}
{4 1,16 1,24 1,29 1,30 1,37 1,39 1,43 1,51 1,55 1,59 1,61 1,70 1,152 1,175 1,186 1,199 1,204 1,207 1,210 1,225 1,228 1,259 1,277 1,291 1,300 1,307 1,322 1,337 1,342 1,361 1,366 1,369 1,388 1,391 1,431 1,432 1,433 1,442 1,460 1,463 1,465 1,491 1,493 1,515 1,518 1,521 1,528 1,536 1,538 1,541 1,560 1,588 1,601 1,616 1,618 1,657 1,684 1,709 1,714 1,732 1,753 1,764 1,782 1,783 1,788 1,796 1,807 1,815 1,821 1,823 1,825 1,849 1,859 1,863 1,867 1,872 1,879 1,883 1,890 1,912 1,913 1}
{4 1,24 1,29 1,37 1,39 1,51 1,55 1,61 1,71 1,76 1,82 1,83 1,113 1,141 1,152 1,168 1,186 1,207 1,211 1,228 1,264 1,274 1,277 1,286 1,294 1,305 1,307 1,328 1,329 1,361 1,362 1,365 1,369 1,373 1,386 1,388 1,391 1,402 1,428 1,433 1,436 1,455 1,456 1,469 1,470 1,476 1,488 1,497 1,521 1,528 1,536 1,539 1,541 1,567 1,583 1,604 1,616 1,622 1,655 1,657 1,669 1,680 1,682 1,701 1,703 1,709 1,718 1,752 1,782 1,783 1,784 1,788 1,789 1,790 1,792 1,793 1,798 1,801 1,805 1,807 1,812 1,822 1,834 1,858 1,867 1,869 1,870 1,875 1,877 1,883 1,889 1,895 1,909 1,911 1}
{4 1,37 1,39 1,51 1,55 1,56 1,93 1,110 1,152 1,165 1,228 1,229 1,277 1,361 1,369 1,388 1,391 1,453 1,497 1,518 1,657 1,782 1,783 1,793 1,807 1,854 1,913 1}
{4 1,39 1,42 1,55 1,57 1,123 1,166 1,177 1,204 1,212 1,228 1,230 1,237 1,244 1,277 1,300 1,305 1,307 1,329 1,361 1,365 1,369 1,388 1,425 1,428 1,441 1,453 1,457 1,470 1,482 1,518 1,528 1,534 1,536 1,541 1,647 1,649 1,657 1,737 1,764 1,782 1,783 1,784 1,790 1,793 1,799 1,807 1,833 1,834 1,836 1,849 1,858 1,865 1,867 1,871 1,903 1,906 1,909 1,913 1}
{14 1,15 1,22 1,39 1,51 1,55 1,56 1,61 1,76 1,82 1,85 1,86 1,95 1,102 1,114 1,116 1,123 1,178 1,180 1,219 1,222 1,228 1,251 1,258 1,266 1,277 1,282 1,284 1,293 1,296 1,332 1,357 1,361 1,369 1,391 1,393 1,394 1,396 1,398 1,399 1,424 1,425 1,479 1,497 1,518 1,525 1,528 1,536 1,554 1,567 1,584 1,585 1,591 1,609 1,619 1,621 1,633 1,654 1,656 1,657 1,723 1,745 1,773 1,783 1,784 1,793 1,804 1,807 1,811 1,816 1,840 1,846 1,851 1,868 1,889 1,891 1,895 1,904 1}
{4 1,39 1,123 1,128 1,303 1,321 1,329 1,357 1,361 1,369 1,388 1,391 1,497 1,528 1,557 1,623 1,633 1,714 1,779 1,807 1,853 1,854 1,913 1}
{4 1,24 1,29 1,35 1,37 1,39 1,55 1,56 1,61 1,71 1,77 1,82 1,86 1,114 1,115 1,126 1,152 1,162 1,165 1,168 1,176 1,194 1,195 1,216 1,220 1,228 1,266 1,273 1,277 1,278 1,283 1,300 1,301 1,303 1,304 1,310 1,321 1,324 1,326 1,335 1,337 1,357 1,361 1,369 1,388 1,391 1,393 1,402 1,404 1,429 1,437 1,449 1,456 1,460 1,475 1,482 1,495 1,504 1,515 1,518 1,523 1,528 1,536 1,538 1,539 1,548 1,552 1,567 1,599 1,603 1,605 1,615 1,644 1,647 1,656 1,657 1,660 1,697 1,702 1,711 1,732 1,763 1,782 1,783 1,790 1,792 1,793 1,796 1,798 1,802 1,803 1,807 1,815 1,825 1,836 1,846 1,849 1,854 1,865 1,876 1,890 1,912 1,913 1}
{4 1,6 1,11 1,18 1,24 1,29 1,32 1,39 1,43 1,45 1,51 1,87 1,109 1,114 1,123 1,173 1,203 1,204 1,211 1,213 1,226 1,232 1,243 1,245 1,246 1,261 1,262 1,277 1,295 1,300 1,305 1,307 1,308 1,321 1,324 1,329 1,358 1,361 1,365 1,369 1,386 1,388 1,391 1,402 1,417 1,427 1,439 1,453 1,462 1,470 1,471 1,478 1,493 1,497 1,521 1,528 1,529 1,541 1,552 1,567 1,577 1,588 1,625 1,630 1,660 1,667 1,668 1,676 1,679 1,681 1,686 1,764 1,769 1,782 1,783 1,784 1,788 1,789 1,790 1,807 1,812 1,823 1,834 1,835 1,854 1,858 1,859 1,861 1,863 1,865 1,875 1,883 1,885 1,893 1,895 1,898 1,909 1}
{4 1,32 1,37 1,39 1,114 1,123 1,126 1,166 1,243 1,260 1,270 1,279 1,334 1,361 1,369 1,388 1,391 1,411 1,470 1,473 1,474 1,482 1,518 1,528 1,541 1,551 1,570 1,601 1,626 1,644 1,673 1,702 1,754 1,763 1,782 1,783 1,789 1,790 1,796 1,807 1,834 1,835 1,868 1,869 1,873 1,879 1,883 1,913 1}
{4 1,39 1,68 1,82 1,116 1,329 1,391 1,456 1,468 1,518 1,528 1,536 1,541 1,542 1,552 1,553 1,611 1,657 1,782 1,807 1,839 1,873 1,913 1}
{4 1,6 1,15 1,17 1,29 1,31 1,36 1,38 1,39 1,51 1,56 1,65 1,67 1,70 1,71 1,72 1,76 1,81 1,82 1,86 1,110 1,114 1,123 1,148 1,166 1,168 1,176 1,177 1,196 1,204 1,208 1,213 1,239 1,271 1,277 1,282 1,286 1,296 1,300 1,307 1,308 1,328 1,329 1,331 1,332 1,333 1,339 1,344 1,345 1,347 1,361 1,365 1,369 1,383 1,388 1,391 1,409 1,416 1,417 1,435 1,439 1,448 1,457 1,463 1,470 1,491 1,495 1,497 1,505 1,508 1,518 1,519 1,528 1,536 1,552 1,553 1,567 1,588 1,597 1,604 1,625 1,644 1,657 1,660 1,667 1,677 1,700 1,709 1,714 1,717 1,720 1,731 1,739 1,746 1,763 1,764 1,773 1,779 1,782 1,783 1,786 1,790 1,793 1,795 1,796 1,798 1,801 1,802 1,804 1,807 1,812 1,833 1,834 1,854 1,858 1,862 1,863 1,865 1,867 1,879 1,885 1,890 1,895 1,904 1,909 1,911 1}
{4 1,6 1,29 1,37 1,45 1,55 1,152 1,168 1,221 1,222 1,277 1,329 1,361 1,368 1,369 1,377 1,388 1,391 1,404 1,407 1,409 1,444 1,454 1,455 1,463 1,470 1,471 1,491 1,494 1,515 1,528 1,552 1,601 1,616 1,745 1,746 1,782 1,783 1,794 1,796 1,807 1,834 1,836 1,854 1,867 1,885 1,913 1}
{4 1,6 1,16 1,17 1,24 1,28 1,32 1,39 1,43 1,51 1,55 1,56 1,61 1,70 1,75 1,82 1,86 1,93 1,99 1,114 1,123 1,152 1,156 1,165 1,167 1,168 1,194 1,196 1,210 1,213 1,222 1,225 1,228 1,239 1,264 1,271 1,277 1,303 1,311 1,321 1,329 1,345 1,357 1,361 1,363 1,365 1,369 1,373 1,375 1,388 1,391 1,402 1,409 1,411 1,416 1,420 1,438 1,441 1,451 1,470 1,488 1,490 1,491 1,495 1,501 1,509 1,515 1,518 1,524 1,528 1,529 1,536 1,548 1,567 1,591 1,596 1,622 1,657 1,701 1,714 1,716 1,725 1,730 1,739 1,742 1,755 1,758 1,761 1,763 1,767 1,779 1,782 1,783 1,785 1,788 1,789 1,790 1,796 1,807 1,812 1,849 1,854 1,858 1,859 1,865 1,867 1,869 1,875 1,879 1,883 1,890 1,895 1,909 1,911 1,913 1}
{4 1,24 1,39 1,41 1,54 1,61 1,71 1,82 1,91 1,92 1,94 1,114 1,115 1,119 1,153 1,187 1,208 1,213 1,224 1,240 1,260 1,272 1,277 1,294 1,295 1,300 1,313 1,326 1,328 1,329 1,349 1,350 1,357 1,359 1,369 1,388 1,391 1,417 1,418 1,442 1,444 1,456 1,495 1,510 1,512 1,518 1,523 1,524 1,528 1,530 1,536 1,539 1,541 1,548 1,580 1,616 1,624 1,625 1,656 1,657 1,677 1,679 1,685 1,707 1,735 1,744 1,746 1,763 1,769 1,783 1,786 1,792 1,796 1,801 1,807 1,809 1,813 1,834 1,854 1,865 1,869 1,873 1,875 1,877 1,879 1,880 1,883 1,887 1,903 1,909 1}
{4 1,6 1,37 1,39 1,55 1,56 1,114 1,123 1,243 1,260 1,270 1,277 1,300 1,329 1,342 1,354 1,361 1,369 1,377 1,391 1,407 1,453 1,470 1,528 1,536 1,620 1,680 1,714 1,751 1,782 1,783 1,788 1,790 1,796 1,807 1,836 1,854 1,867 1,913 1}
{0 1,1 1,2 1,3 1,4 1,24 1,39 1,43 1,51 1,55 1,61 1,69 1,70 1,82 1,115 1,117 1,152 1,175 1,199 1,204 1,207 1,210 1,228 1,259 1,277 1,286 1,291 1,300 1,307 1,322 1,337 1,342 1,366 1,369 1,388 1,391 1,400 1,433 1,442 1,453 1,465 1,501 1,509 1,515 1,518 1,528 1,536 1,538 1,541 1,559 1,560 1,588 1,596 1,601 1,610 1,618 1,654 1,657 1,709 1,714 1,732 1,753 1,764 1,783 1,788 1,796 1,807 1,815 1,820 1,821 1,823 1,849 1,859 1,879 1,912 1,913 1}
{0 1,1 1,2 1,4 1,18 1,24 1,76 1,151 1,271 1,329 1,335 1,369 1,422 1,476 1,484 1,525 1,536 1,620 1,656 1,807 1}
{4 1,6 1,24 1,26 1,29 1,31 1,39 1,51 1,54 1,55 1,56 1,61 1,111 1,114 1,153 1,157 1,186 1,190 1,204 1,210 1,220 1,232 1,267 1,271 1,277 1,300 1,307 1,321 1,329 1,361 1,369 1,388 1,391 1,408 1,413 1,434 1,449 1,470 1,473 1,489 1,491 1,497 1,508 1,509 1,518 1,528 1,536 1,541 1,625 1,630 1,670 1,680 1,682 1,698 1,705 1,709 1,716 1,763 1,782 1,783 1,785 1,790 1,792 1,793 1,796 1,801 1,804 1,807 1,813 1,817 1,834 1,835 1,841 1,842 1,849 1,854 1,859 1,863 1,867 1,869 1,875 1,883 1,891 1,904 1,913 1}
{4 1,41 1,43 1,55 1,61 1,149 1,171 1,228 1,248 1,258 1,271 1,328 1,369 1,454 1,528 1,538 1,541 1,569 1,606 1,715 1,754 1,782 1,783 1,788 1,796 1,804 1,807 1,817 1,854 1,869 1,913 1}
{}
{1 1,4 1,13 1,37 1,39 1,55 1,82 1,114 1,123 1,128 1,135 1,152 1,194 1,207 1,215 1,222 1,243 1,277 1,279 1,286 1,299 1,302 1,303 1,308 1,321 1,328 1,329 1,336 1,339 1,342 1,343 1,357 1,361 1,369 1,377 1,388 1,391 1,430 1,474 1,491 1,496 1,497 1,515 1,518 1,528 1,539 1,550 1,557 1,563 1,570 1,592 1,611 1,616 1,623 1,633 1,687 1,714 1,715 1,751 1,755 1,759 1,779 1,782 1,783 1,788 1,793 1,796 1,807 1,831 1,853 1,854 1,858 1,872 1,885 1,895 1,909 1,911 1,913 1}
{4 1,5 1,6 1,14 1,17 1,24 1,39 1,55 1,82 1,92 1,94 1,114 1,128 1,168 1,204 1,210 1,228 1,250 1,267 1,286 1,290 1,301 1,305 1,328 1,329 1,337 1,365 1,369 1,386 1,388 1,389 1,391 1,394 1,402 1,419 1,451 1,460 1,468 1,469 1,495 1,515 1,518 1,528 1,529 1,535 1,536 1,538 1,553 1,597 1,620 1,638 1,657 1,726 1,732 1,763 1,782 1,783 1,784 1,796 1,797 1,807 1,810 1,815 1,825 1,836 1,848 1,877 1,890 1,891 1,904 1,909 1,912 1,913 1}
{4 1,29 1,39 1,54 1,55 1,56 1,76 1,85 1,87 1,114 1,123 1,135 1,152 1,157 1,177 1,178 1,180 1,187 1,228 1,245 1,248 1,270 1,277 1,294 1,328 1,357 1,361 1,368 1,369 1,386 1,388 1,391 1,402 1,409 1,423 1,433 1,441 1,456 1,470 1,528 1,530 1,537 1,538 1,539 1,577 1,578 1,601 1,625 1,627 1,630 1,655 1,657 1,667 1,684 1,703 1,704 1,777 1,781 1,782 1,783 1,788 1,790 1,796 1,804 1,807 1,859 1,867 1,883 1,909 1,910 1}
{4 1,15 1,26 1,29 1,36 1,37 1,39 1,43 1,51 1,56 1,65 1,70 1,82 1,83 1,86 1,114 1,115 1,121 1,169 1,183 1,204 1,207 1,210 1,260 1,270 1,275 1,279 1,280 1,308 1,314 1,357 1,361 1,365 1,369 1,388 1,391 1,392 1,411 1,430 1,433 1,443 1,454 1,457 1,458 1,466 1,469 1,478 1,488 1,491 1,495 1,503 1,508 1,515 1,518 1,520 1,528 1,535 1,538 1,539 1,541 1,545 1,548 1,550 1,591 1,600 1,601 1,630 1,631 1,635 1,638 1,657 1,681 1,695 1,709 1,714 1,716 1,729 1,746 1,750 1,763 1,779 1,782 1,783 1,784 1,788 1,790 1,792 1,793 1,796 1,804 1,807 1,808 1,825 1,828 1,829 1,836 1,854 1,865 1,869 1,872 1,877 1,893 1,895 1,909 1,913 1}
{4 1,9 1,12 1,39 1,45 1,51 1,55 1,56 1,85 1,88 1,114 1,200 1,210 1,225 1,228 1,235 1,271 1,277 1,281 1,304 1,328 1,361 1,369 1,386 1,388 1,391 1,394 1,409 1,421 1,441 1,443 1,449 1,451 1,468 1,505 1,506 1,518 1,528 1,536 1,562 1,630 1,652 1,659 1,695 1,703 1,736 1,763 1,779 1,782 1,783 1,796 1,797 1,807 1,809 1,823 1,828 1,834 1,837 1,854 1,872 1,873 1,876 1,913 1}
{4 1,24 1,37 1,39 1,55 1,56 1,61 1,68 1,213 1,279 1,336 1,344 1,369 1,442 1,497 1,518 1,528 1,619 1,657 1,679 1,702 1,715 1,751 1,769 1,783 1,883 1,911 1}
{4 1,6 1,12 1,13 1,14 1,24 1,26 1,29 1,31 1,39 1,42 1,43 1,51 1,55 1,56 1,82 1,83 1,85 1,88 1,114 1,126 1,128 1,143 1,152 1,156 1,204 1,207 1,210 1,227 1,243 1,245 1,258 1,275 1,276 1,277 1,302 1,328 1,329 1,338 1,357 1,360 1,361 1,363 1,365 1,369 1,375 1,388 1,391 1,409 1,411 1,442 1,449 1,463 1,468 1,471 1,491 1,493 1,494 1,495 1,496 1,497 1,505 1,506 1,516 1,518 1,528 1,536 1,538 1,541 1,552 1,554 1,559 1,560 1,567 1,615 1,616 1,617 1,625 1,631 1,657 1,679 1,680 1,681 1,703 1,709 1,720 1,758 1,763 1,764 1,779 1,782 1,783 1,784 1,787 1,788 1,790 1,796 1,799 1,807 1,817 1,820 1,829 1,834 1,846 1,863 1,869 1,873 1,877 1,878 1,879 1,884 1,888 1,895 1,909 1,911 1,913 1}
{4 1,25 1,39 1,51 1,55 1,56 1,61 1,75 1,83 1,97 1,106 1,111 1,115 1,156 1,159 1,166 1,194 1,196 1,210 1,228 1,233 1,238 1,277 1,290 1,300 1,313 1,328 1,337 1,361 1,365 1,369 1,388 1,391 1,416 1,425 1,432 1,451 1,495 1,497 1,520 1,528 1,536 1,546 1,553 1,558 1,567 1,681 1,695 1,714 1,725 1,728 1,732 1,763 1,782 1,783 1,788 1,790 1,793 1,807 1,815 1,822 1,849 1,851 1,865 1,869 1,879 1,891 1,900 1,909 1,912 1,913 1}
{4 1,15 1,16 1,24 1,29 1,37 1,39 1,41 1,51 1,56 1,61 1,82 1,94 1,106 1,115 1,127 1,181 1,262 1,267 1,271 1,277 1,286 1,294 1,300 1,301 1,303 1,305 1,310 1,320 1,321 1,332 1,339 1,344 1,345 1,353 1,361 1,369 1,391 1,392 1,399 1,417 1,453 1,462 1,478 1,523 1,528 1,529 1,536 1,537 1,538 1,548 1,553 1,592 1,619 1,620 1,624 1,655 1,656 1,657 1,675 1,704 1,740 1,755 1,779 1,783 1,784 1,786 1,793 1,802 1,805 1,807 1,823 1,834 1,835 1,849 1,854 1,858 1,867 1,880 1,883 1}
{4 1,5 1,6 1,11 1,17 1,29 1,32 1,37 1,39 1,43 1,46 1,51 1,54 1,55 1,56 1,61 1,70 1,82 1,83 1,85 1,93 1,101 1,103 1,110 1,114 1,115 1,123 1,125 1,138 1,140 1,157 1,168 1,176 1,177 1,181 1,201 1,202 1,204 1,218 1,220 1,225 1,228 1,229 1,233 1,236 1,243 1,245 1,246 1,260 1,264 1,267 1,268 1,270 1,277 1,280 1,286 1,308 1,320 1,321 1,328 1,329 1,334 1,339 1,342 1,345 1,357 1,361 1,365 1,368 1,369 1,377 1,383 1,386 1,388 1,389 1,390 1,391 1,392 1,393 1,399 1,407 1,409 1,410 1,412 1,431 1,433 1,444 1,453 1,459 1,463 1,474 1,478 1,491 1,493 1,495 1,496 1,503 1,507 1,509 1,518 1,521 1,526 1,528 1,536 1,538 1,539 1,541 1,548 1,549 1,554 1,559 1,567 1,591 1,617 1,635 1,640 1,657 1,667 1,672 1,673 1,684 1,690 1,696 1,699 1,700 1,714 1,715 1,720 1,734 1,736 1,741 1,746 1,749 1,751 1,752 1,756 1,763 1,764 1,765 1,779 1,782 1,783 1,784 1,785 1,788 1,789 1,790 1,793 1,796 1,798 1,799 1,807 1,812 1,813 1,831 1,834 1,838 1,840 1,841 1,854 1,855 1,857 1,859 1,865 1,866 1,867 1,869 1,872 1,873 1,874 1,875 1,878 1,879 1,883 1,884 1,892 1,904 1,908 1,909 1,913 1}
{4 1,6 1,7 1,11 1,24 1,37 1,39 1,51 1,55 1,61 1,82 1,114 1,156 1,181 1,228 1,277 1,286 1,288 1,300 1,337 1,361 1,365 1,369 1,388 1,391 1,402 1,408 1,420 1,433 1,453 1,460 1,468 1,491 1,495 1,505 1,526 1,528 1,531 1,538 1,539 1,541 1,543 1,552 1,580 1,588 1,652 1,653 1,657 1,732 1,756 1,779 1,782 1,783 1,793 1,796 1,807 1,815 1,825 1,835 1,843 1,862 1,872 1,879 1,883 1,890 1,895 1,909 1,912 1,913 1}
{4 1,6 1,24 1,29 1,30 1,31 1,36 1,37 1,38 1,39 1,43 1,46 1,51 1,55 1,56 1,61 1,70 1,71 1,72 1,81 1,82 1,83 1,84 1,85 1,86 1,87 1,88 1,94 1,97 1,106 1,110 1,112 1,114 1,122 1,123 1,138 1,148 1,168 1,176 1,177 1,195 1,204 1,208 1,210 1,213 1,218 1,228 1,239 1,243 1,250 1,267 1,271 1,277 1,280 1,294 1,296 1,308 1,310 1,321 1,328 1,332 1,333 1,339 1,344 1,345 1,347 1,350 1,357 1,361 1,365 1,369 1,388 1,391 1,392 1,402 1,409 1,425 1,433 1,434 1,439 1,443 1,448 1,453 1,457 1,470 1,478 1,489 1,491 1,495 1,497 1,505 1,508 1,513 1,515 1,518 1,519 1,521 1,528 1,535 1,536 1,538 1,588 1,600 1,603 1,604 1,625 1,630 1,657 1,659 1,660 1,667 1,668 1,677 1,679 1,700 1,701 1,702 1,709 1,714 1,717 1,720 1,731 1,739 1,763 1,764 1,779 1,782 1,783 1,784 1,786 1,790 1,793 1,796 1,804 1,807 1,810 1,812 1,834 1,837 1,839 1,846 1,849 1,854 1,858 1,862 1,869 1,870 1,879 1,883 1,885 1,894 1,895 1,900 1,904 1,909 1,911 1}
{39 1,51 1,134 1,249 1,327 1,369 1,391 1,528 1,567 1,630 1,789 1,798 1,821 1,834 1,867 1,911 1,913 1}
{4 1,29 1,37 1,39 1,43 1,45 1,49 1,51 1,55 1,56 1,61 1,64 1,78 1,82 1,86 1,87 1,110 1,111 1,114 1,128 1,151 1,160 1,166 1,189 1,191 1,194 1,204 1,207 1,228 1,238 1,241 1,243 1,277 1,290 1,292 1,300 1,304 1,306 1,307 1,313 1,316 1,317 1,321 1,328 1,329 1,332 1,336 1,357 1,361 1,363 1,365 1,369 1,370 1,387 1,388 1,391 1,392 1,402 1,409 1,410 1,416 1,420 1,424 1,433 1,441 1,442 1,451 1,460 1,468 1,478 1,479 1,490 1,491 1,493 1,495 1,497 1,501 1,509 1,510 1,513 1,518 1,521 1,528 1,536 1,538 1,541 1,544 1,548 1,553 1,567 1,580 1,588 1,605 1,609 1,611 1,613 1,614 1,616 1,625 1,629 1,630 1,642 1,650 1,653 1,657 1,672 1,687 1,689 1,699 1,703 1,714 1,716 1,721 1,725 1,733 1,736 1,743 1,752 1,765 1,779 1,782 1,783 1,790 1,793 1,796 1,799 1,802 1,805 1,807 1,810 1,820 1,831 1,835 1,836 1,847 1,854 1,855 1,859 1,863 1,865 1,867 1,869 1,871 1,872 1,875 1,879 1,883 1,891 1,895 1,907 1,909 1,913 1}
{4 1,14 1,16 1,37 1,39 1,41 1,51 1,70 1,71 1,85 1,106 1,114 1,115 1,116 1,123 1,183 1,213 1,223 1,224 1,228 1,277 1,286 1,294 1,295 1,305 1,319 1,321 1,329 1,332 1,347 1,352 1,361 1,365 1,369 1,396 1,417 1,426 1,441 1,447 1,462 1,469 1,476 1,493 1,528 1,536 1,537 1,539 1,541 1,577 1,578 1,601 1,604 1,618 1,625 1,636 1,643 1,650 1,656 1,657 1,694 1,709 1,714 1,734 1,735 1,763 1,782 1,783 1,784 1,788 1,789 1,790 1,793 1,801 1,804 1,807 1,812 1,834 1,854 1,861 1,865 1,869 1,880 1,883 1,887 1,895 1,903 1,909 1,910 1}
{4 1,15 1,24 1,29 1,37 1,39 1,51 1,56 1,61 1,68 1,70 1,82 1,92 1,114 1,120 1,123 1,152 1,168 1,177 1,182 1,196 1,199 1,207 1,210 1,227 1,228 1,232 1,244 1,245 1,260 1,267 1,275 1,277 1,281 1,286 1,316 1,329 1,334 1,338 1,357 1,361 1,365 1,369 1,372 1,388 1,391 1,392 1,402 1,416 1,425 1,437 1,464 1,467 1,468 1,470 1,481 1,495 1,497 1,498 1,508 1,515 1,518 1,521 1,528 1,532 1,538 1,541 1,548 1,553 1,556 1,568 1,570 1,641 1,657 1,667 1,679 1,681 1,693 1,695 1,707 1,709 1,716 1,721 1,746 1,749 1,752 1,755 1,763 1,779 1,782 1,783 1,785 1,788 1,789 1,791 1,792 1,796 1,798 1,807 1,810 1,812 1,821 1,823 1,834 1,849 1,852 1,859 1,860 1,867 1,883 1,897 1,902 1,909 1,910 1,911 1,913 1}
{4 1,5 1,6 1,11 1,14 1,24 1,25 1,37 1,39 1,41 1,43 1,45 1,46 1,51 1,53 1,54 1,55 1,56 1,61 1,70 1,75 1,82 1,92 1,94 1,96 1,97 1,103 1,111 1,114 1,115 1,128 1,134 1,150 1,152 1,160 1,166 1,168 1,170 1,176 1,177 1,183 1,184 1,194 1,196 1,204 1,207 1,210 1,211 1,225 1,228 1,233 1,239 1,242 1,243 1,244 1,245 1,267 1,270 1,277 1,286 1,300 1,303 1,307 1,310 1,312 1,313 1,317 1,321 1,322 1,328 1,329 1,331 1,337 1,353 1,357 1,361 1,365 1,369 1,370 1,388 1,389 1,391 1,392 1,402 1,407 1,409 1,416 1,417 1,425 1,428 1,431 1,433 1,437 1,439 1,441 1,451 1,452 1,453 1,460 1,468 1,470 1,478 1,485 1,489 1,490 1,491 1,495 1,497 1,500 1,501 1,505 1,515 1,516 1,518 1,520 1,528 1,536 1,538 1,541 1,546 1,552 1,553 1,567 1,570 1,600 1,601 1,609 1,614 1,615 1,622 1,625 1,630 1,632 1,638 1,644 1,657 1,673 1,679 1,680 1,681 1,695 1,697 1,703 1,704 1,709 1,714 1,716 1,725 1,728 1,732 1,734 1,736 1,746 1,754 1,756 1,761 1,763 1,775 1,782 1,783 1,786 1,788 1,790 1,792 1,793 1,795 1,796 1,798 1,806 1,807 1,815 1,816 1,823 1,828 1,834 1,835 1,836 1,838 1,846 1,847 1,851 1,854 1,858 1,867 1,875 1,879 1,880 1,884 1,888 1,891 1,895 1,896 1,903 1,904 1,907 1,909 1,912 1,913 1}
{4 1,11 1,19 1,51 1,80 1,82 1,92 1,115 1,277 1,306 1,353 1,357 1,361 1,417 1,449 1,478 1,497 1,518 1,536 1,577 1,668 1,769 1,779 1,782 1,783 1,796 1,880 1,903 1}
{4 1,15 1,21 1,24 1,28 1,29 1,39 1,55 1,114 1,121 1,123 1,152 1,164 1,177 1,183 1,223 1,286 1,300 1,332 1,344 1,345 1,365 1,369 1,388 1,391 1,404 1,428 1,439 1,450 1,453 1,477 1,478 1,491 1,497 1,513 1,528 1,541 1,553 1,573 1,608 1,620 1,642 1,657 1,680 1,681 1,709 1,782 1,783 1,785 1,788 1,807 1,821 1,825 1,828 1,831 1,834 1,852 1,857 1,872 1,883 1,903 1,909 1,913 1}
{4 1,6 1,15 1,29 1,37 1,49 1,55 1,86 1,114 1,122 1,152 1,277 1,328 1,361 1,369 1,370 1,377 1,388 1,390 1,401 1,408 1,411 1,453 1,464 1,468 1,470 1,500 1,501 1,518 1,528 1,538 1,609 1,612 1,616 1,657 1,660 1,673 1,719 1,763 1,768 1,781 1,783 1,796 1,807 1,815 1,834 1,837 1,852 1,856 1,859 1,870 1,883 1,913 1}
{4 1,24 1,37 1,39 1,70 1,102 1,114 1,123 1,136 1,177 1,210 1,228 1,239 1,243 1,277 1,295 1,318 1,326 1,329 1,330 1,332 1,339 1,345 1,361 1,365 1,369 1,388 1,391 1,399 1,423 1,433 1,462 1,468 1,508 1,515 1,518 1,528 1,530 1,534 1,538 1,553 1,576 1,588 1,625 1,657 1,667 1,682 1,709 1,714 1,746 1,763 1,783 1,790 1,807 1,832 1,846 1,858 1,869 1,875 1,880 1,883 1,909 1,911 1}
{4 1,6 1,24 1,26 1,29 1,31 1,32 1,39 1,41 1,43 1,45 1,54 1,56 1,61 1,82 1,83 1,85 1,87 1,115 1,123 1,124 1,129 1,130 1,144 1,158 1,165 1,171 1,204 1,222 1,228 1,241 1,266 1,270 1,275 1,276 1,277 1,304 1,321 1,329 1,332 1,342 1,357 1,358 1,361 1,365 1,369 1,372 1,386 1,387 1,388 1,391 1,395 1,409 1,418 1,433 1,441 1,443 1,455 1,463 1,470 1,493 1,494 1,497 1,518 1,521 1,528 1,541 1,548 1,601 1,615 1,645 1,657 1,666 1,716 1,746 1,748 1,758 1,759 1,763 1,782 1,783 1,784 1,785 1,789 1,790 1,796 1,805 1,807 1,808 1,809 1,813 1,823 1,828 1,835 1,841 1,849 1,867 1,870 1,872 1,875 1,879 1,883 1,895 1,896 1,913 1}
{0 1,1 1,2 1,3 1,4 1,6 1,15 1,29 1,37 1,39 1,45 1,46 1,51 1,56 1,61 1,65 1,68 1,69 1,82 1,83 1,94 1,114 1,115 1,116 1,117 1,123 1,168 1,169 1,177 1,204 1,210 1,242 1,243 1,251 1,277 1,286 1,302 1,308 1,311 1,332 1,339 1,361 1,368 1,369 1,377 1,383 1,386 1,388 1,391 1,399 1,400 1,408 1,409 1,419 1,424 1,439 1,444 1,453 1,457 1,468 1,470 1,478 1,484 1,488 1,491 1,497 1,501 1,505 1,509 1,518 1,528 1,536 1,538 1,539 1,541 1,542 1,559 1,581 1,587 1,610 1,654 1,657 1,665 1,679 1,682 1,709 1,714 1,732 1,753 1,774 1,781 1,782 1,783 1,786 1,788 1,791 1,793 1,796 1,802 1,805 1,807 1,821 1,823 1,831 1,859 1,863 1,879 1,889 1,895 1,909 1,913 1}
{4 1,5 1,39 1,43 1,45 1,76 1,82 1,123 1,153 1,182 1,251 1,277 1,285 1,361 1,391 1,399 1,402 1,469 1,491 1,495 1,528 1,548 1,551 1,553 1,561 1,585 1,600 1,631 1,714 1,721 1,763 1,768 1,781 1,783 1,796 1,807 1,822 1,834 1,835 1,859 1,865 1,883 1,888 1,911 1}
{4 1,6 1,15 1,24 1,32 1,37 1,39 1,43 1,51 1,56 1,61 1,67 1,82 1,104 1,114 1,204 1,210 1,254 1,270 1,271 1,286 1,300 1,329 1,332 1,333 1,361 1,365 1,376 1,388 1,391 1,409 1,433 1,468 1,470 1,478 1,493 1,497 1,518 1,528 1,536 1,537 1,538 1,552 1,555 1,587 1,588 1,600 1,623 1,625 1,657 1,683 1,693 1,719 1,752 1,763 1,782 1,783 1,786 1,790 1,793 1,796 1,798 1,807 1,814 1,833 1,834 1,849 1,867 1,870 1,875 1,895 1,909 1,913 1}
{4 1,6 1,18 1,24 1,32 1,37 1,39 1,41 1,51 1,56 1,61 1,67 1,82 1,92 1,94 1,113 1,114 1,120 1,123 1,143 1,145 1,170 1,177 1,191 1,196 1,199 1,204 1,207 1,210 1,223 1,228 1,233 1,239 1,241 1,245 1,246 1,247 1,269 1,274 1,275 1,277 1,286 1,300 1,302 1,305 1,308 1,313 1,329 1,337 1,339 1,357 1,361 1,362 1,365 1,369 1,376 1,386 1,388 1,389 1,391 1,408 1,409 1,416 1,425 1,427 1,433 1,438 1,439 1,449 1,453 1,463 1,470 1,472 1,491 1,496 1,497 1,505 1,518 1,528 1,536 1,537 1,538 1,541 1,543 1,552 1,553 1,567 1,625 1,630 1,657 1,667 1,679 1,685 1,691 1,698 1,701 1,703 1,707 1,709 1,714 1,716 1,725 1,730 1,732 1,756 1,760 1,763 1,768 1,782 1,783 1,788 1,790 1,793 1,796 1,798 1,804 1,807 1,811 1,815 1,825 1,833 1,834 1,852 1,859 1,865 1,867 1,872 1,873 1,875 1,879 1,884 1,890 1,895 1,900 1,903 1,909 1,911 1,912 1,913 1}
{4 1,6 1,15 1,21 1,22 1,24 1,26 1,29 1,32 1,37 1,39 1,42 1,43 1,51 1,53 1,54 1,55 1,56 1,61 1,67 1,70 1,71 1,82 1,83 1,85 1,87 1,91 1,94 1,106 1,114 1,116 1,123 1,125 1,140 1,146 1,148 1,153 1,180 1,182 1,183 1,207 1,208 1,213 1,220 1,226 1,228 1,232 1,233 1,241 1,245 1,246 1,261 1,262 1,266 1,267 1,277 1,281 1,286 1,289 1,296 1,300 1,305 1,308 1,328 1,329 1,332 1,345 1,353 1,355 1,357 1,361 1,365 1,369 1,386 1,388 1,389 1,391 1,409 1,410 1,425 1,433 1,438 1,453 1,476 1,478 1,479 1,484 1,497 1,509 1,510 1,513 1,514 1,515 1,518 1,528 1,535 1,536 1,538 1,539 1,541 1,552 1,560 1,570 1,571 1,572 1,583 1,616 1,620 1,625 1,630 1,640 1,647 1,650 1,657 1,659 1,670 1,681 1,696 1,709 1,743 1,745 1,747 1,763 1,767 1,768 1,769 1,770 1,782 1,783 1,785 1,786 1,788 1,798 1,807 1,812 1,813 1,816 1,823 1,834 1,837 1,849 1,852 1,853 1,854 1,866 1,867 1,869 1,873 1,875 1,876 1,883 1,884 1,890 1,908 1,909 1,911 1}
{4 1,16 1,37 1,39 1,82 1,84 1,88 1,114 1,115 1,128 1,168 1,171 1,181 1,210 1,228 1,243 1,244 1,277 1,298 1,308 1,309 1,321 1,328 1,361 1,365 1,388 1,391 1,409 1,424 1,454 1,496 1,518 1,578 1,714 1,763 1,782 1,793 1,796 1,807 1,820 1,856 1,887 1,913 1}
{4 1,31 1,39 1,60 1,85 1,87 1,93 1,94 1,132 1,198 1,249 1,277 1,328 1,329 1,369 1,388 1,393 1,498 1,555 1,620 1,642 1,650 1,660 1,716 1,741 1,783 1,788 1,796 1,807 1,851 1,909 1,913 1}
{4 1,27 1,39 1,51 1,55 1,83 1,177 1,208 1,228 1,262 1,271 1,282 1,303 1,317 1,320 1,329 1,332 1,347 1,357 1,359 1,361 1,365 1,369 1,388 1,399 1,402 1,411 1,416 1,426 1,435 1,436 1,453 1,463 1,470 1,528 1,529 1,532 1,536 1,580 1,584 1,624 1,656 1,657 1,763 1,769 1,782 1,783 1,790 1,796 1,797 1,807 1,849 1,872 1,874 1,883 1,900 1,909 1}
{4 1,39 1,54 1,56 1,82 1,83 1,84 1,88 1,93 1,110 1,114 1,115 1,123 1,165 1,181 1,204 1,228 1,236 1,245 1,268 1,277 1,286 1,321 1,328 1,339 1,361 1,369 1,388 1,391 1,409 1,424 1,433 1,453 1,478 1,496 1,518 1,526 1,528 1,536 1,538 1,541 1,552 1,554 1,657 1,667 1,696 1,763 1,782 1,783 1,788 1,793 1,796 1,807 1,824 1,849 1,854 1,859 1,867 1,879 1,884 1,913 1}
{4 1,6 1,14 1,29 1,37 1,38 1,39 1,51 1,55 1,65 1,69 1,70 1,82 1,83 1,92 1,114 1,123 1,128 1,164 1,168 1,181 1,198 1,204 1,228 1,232 1,235 1,245 1,250 1,267 1,277 1,286 1,290 1,300 1,301 1,305 1,311 1,319 1,329 1,331 1,358 1,361 1,365 1,369 1,386 1,388 1,391 1,394 1,400 1,402 1,433 1,437 1,451 1,463 1,464 1,469 1,478 1,485 1,491 1,501 1,505 1,509 1,518 1,528 1,529 1,536 1,538 1,541 1,542 1,545 1,562 1,589 1,597 1,601 1,603 1,638 1,647 1,654 1,657 1,659 1,660 1,663 1,664 1,686 1,703 1,709 1,714 1,726 1,746 1,753 1,763 1,769 1,771 1,779 1,782 1,783 1,788 1,797 1,807 1,810 1,828 1,836 1,848 1,851 1,867 1,872 1,877 1,879 1,895 1,904 1,909 1,913 1}
{4 1,24 1,27 1,51 1,115 1,170 1,181 1,210 1,228 1,262 1,277 1,303 1,307 1,353 1,357 1,361 1,369 1,374 1,399 1,402 1,409 1,426 1,453 1,470 1,493 1,497 1,521 1,528 1,529 1,533 1,539 1,578 1,584 1,585 1,624 1,625 1,656 1,657 1,709 1,744 1,763 1,783 1,790 1,796 1,807 1,859 1,867 1}
{4 1,6 1,21 1,29 1,39 1,45 1,49 1,51 1,56 1,61 1,65 1,82 1,83 1,89 1,95 1,114 1,115 1,121 1,123 1,137 1,201 1,220 1,239 1,243 1,264 1,266 1,277 1,286 1,301 1,328 1,331 1,338 1,354 1,365 1,369 1,382 1,388 1,391 1,409 1,417 1,422 1,429 1,440 1,453 1,454 1,473 1,485 1,488 1,502 1,511 1,516 1,518 1,528 1,535 1,536 1,539 1,541 1,553 1,555 1,559 1,564 1,567 1,587 1,598 1,642 1,657 1,685 1,701 1,703 1,747 1,754 1,781 1,782 1,783 1,790 1,796 1,798 1,799 1,801 1,807 1,859 1,865 1,879 1,883 1,884 1,885 1,889 1,895 1,903 1,909 1,913 1}
{4 1,6 1,55 1,61 1,82 1,86 1,88 1,116 1,169 1,190 1,204 1,219 1,225 1,296 1,357 1,361 1,365 1,369 1,388 1,402 1,409 1,425 1,450 1,453 1,498 1,518 1,528 1,536 1,567 1,700 1,750 1,783 1,786 1,788 1,793 1,794 1,807 1,822 1,831 1,842 1,852 1,867 1,870 1,877 1,879 1,909 1,913 1}
{4 1,5 1,11 1,39 1,43 1,45 1,55 1,76 1,82 1,83 1,123 1,153 1,182 1,228 1,251 1,277 1,285 1,295 1,329 1,345 1,361 1,369 1,391 1,399 1,402 1,418 1,469 1,491 1,493 1,495 1,528 1,541 1,548 1,551 1,553 1,561 1,583 1,585 1,600 1,631 1,676 1,686 1,714 1,721 1,763 1,768 1,781 1,783 1,796 1,807 1,822 1,834 1,835 1,854 1,859 1,865 1,883 1,888 1,895 1,911 1}
{4 1,6 1,24 1,37 1,39 1,42 1,43 1,51 1,56 1,82 1,83 1,86 1,106 1,114 1,123 1,135 1,147 1,177 1,195 1,196 1,207 1,211 1,277 1,292 1,305 1,328 1,329 1,369 1,388 1,391 1,402 1,427 1,433 1,457 1,460 1,468 1,473 1,512 1,515 1,516 1,518 1,519 1,528 1,532 1,536 1,553 1,601 1,616 1,657 1,714 1,725 1,748 1,763 1,782 1,783 1,788 1,790 1,793 1,796 1,807 1,812 1,822 1,856 1,867 1,869 1,870 1,875 1,883 1,895 1,909 1,913 1}
{4 1,6 1,11 1,29 1,39 1,43 1,45 1,51 1,55 1,61 1,65 1,82 1,112 1,114 1,146 1,166 1,168 1,191 1,207 1,210 1,213 1,228 1,242 1,251 1,277 1,286 1,301 1,306 1,308 1,313 1,317 1,328 1,330 1,335 1,357 1,361 1,365 1,369 1,386 1,388 1,391 1,394 1,402 1,409 1,417 1,420 1,443 1,453 1,468 1,495 1,496 1,505 1,509 1,515 1,518 1,520 1,528 1,536 1,600 1,601 1,604 1,606 1,627 1,633 1,645 1,649 1,657 1,677 1,681 1,682 1,703 1,709 1,715 1,736 1,752 1,754 1,755 1,762 1,763 1,765 1,779 1,782 1,783 1,784 1,786 1,788 1,789 1,790 1,791 1,796 1,797 1,798 1,806 1,807 1,828 1,832 1,834 1,835 1,849 1,854 1,858 1,867 1,872 1,879 1,883 1,887 1,891 1,894 1,895 1,903 1,909 1,913 1}
{26 1,61 1,82 1,272 1,277 1,294 1,321 1,331 1,332 1,344 1,345 1,361 1,369 1,402 1,404 1,417 1,439 1,513 1,528 1,536 1,647 1,782 1,783 1,796 1,807 1,823 1,869 1,879 1}
{4 1,6 1,18 1,37 1,39 1,51 1,52 1,55 1,82 1,91 1,92 1,97 1,114 1,115 1,123 1,152 1,176 1,245 1,260 1,264 1,277 1,321 1,328 1,329 1,332 1,361 1,365 1,369 1,379 1,386 1,388 1,391 1,425 1,457 1,471 1,491 1,497 1,506 1,509 1,516 1,518 1,521 1,528 1,532 1,535 1,541 1,557 1,570 1,578 1,590 1,603 1,616 1,637 1,647 1,659 1,660 1,669 1,707 1,716 1,717 1,730 1,745 1,746 1,758 1,763 1,775 1,779 1,782 1,783 1,788 1,789 1,796 1,807 1,812 1,840 1,854 1,871 1,875 1,903 1,906 1,909 1,911 1,913 1}
{4 1,11 1,24 1,37 1,61 1,115 1,116 1,171 1,194 1,222 1,228 1,238 1,258 1,272 1,277 1,316 1,339 1,362 1,383 1,388 1,429 1,455 1,472 1,518 1,519 1,528 1,538 1,539 1,559 1,697 1,711 1,783 1,807 1,854 1,865 1,867 1,872 1,913 1}
{39 1,43 1,107 1,115 1,159 1,222 1,277 1,284 1,361 1,365 1,404 1,409 1,444 1,453 1,455 1,463 1,470 1,497 1,528 1,536 1,541 1,587 1,592 1,656 1,711 1,769 1,807 1,872 1,909 1}
{4 1,17 1,31 1,39 1,43 1,56 1,82 1,83 1,115 1,123 1,199 1,222 1,230 1,260 1,361 1,369 1,388 1,391 1,433 1,442 1,509 1,518 1,601 1,717 1,763 1,782 1,783 1,807 1,820 1,841 1,849 1,863 1,887 1,913 1}
{4 1,6 1,11 1,24 1,29 1,39 1,42 1,43 1,45 1,51 1,55 1,56 1,61 1,65 1,82 1,87 1,88 1,92 1,93 1,94 1,112 1,114 1,117 1,123 1,125 1,152 1,166 1,168 1,177 1,192 1,198 1,204 1,207 1,210 1,211 1,213 1,218 1,228 1,234 1,239 1,242 1,251 1,265 1,277 1,286 1,288 1,308 1,313 1,320 1,328 1,329 1,347 1,352 1,357 1,358 1,361 1,365 1,369 1,386 1,387 1,388 1,390 1,391 1,392 1,394 1,402 1,409 1,414 1,420 1,443 1,453 1,468 1,469 1,478 1,495 1,496 1,505 1,509 1,515 1,516 1,518 1,528 1,529 1,536 1,554 1,573 1,599 1,600 1,601 1,603 1,604 1,623 1,629 1,649 1,657 1,677 1,679 1,681 1,703 1,709 1,716 1,736 1,752 1,753 1,754 1,758 1,762 1,763 1,764 1,765 1,779 1,782 1,783 1,784 1,786 1,788 1,789 1,790 1,791 1,796 1,797 1,798 1,806 1,807 1,823 1,828 1,831 1,832 1,834 1,835 1,836 1,846 1,849 1,853 1,854 1,858 1,862 1,867 1,869 1,872 1,883 1,885 1,894 1,895 1,909 1,913 1}
{4 1,6 1,27 1,39 1,45 1,56 1,61 1,66 1,82 1,91 1,92 1,114 1,115 1,120 1,123 1,140 1,152 1,162 1,171 1,187 1,188 1,199 1,210 1,213 1,228 1,241 1,243 1,277 1,308 1,321 1,328 1,329 1,332 1,342 1,343 1,345 1,358 1,361 1,362 1,369 1,372 1,377 1,388 1,391 1,393 1,402 1,417 1,423 1,429 1,442 1,445 1,453 1,463 1,468 1,512 1,518 1,523 1,528 1,561 1,583 1,591 1,593 1,621 1,632 1,657 1,660 1,677 1,679 1,709 1,744 1,763 1,768 1,779 1,783 1,798 1,799 1,807 1,826 1,834 1,840 1,854 1,863 1,869 1,873 1,875 1,877 1,879 1,882 1,883 1,895 1,903 1,909 1}
{4 1,11 1,18 1,37 1,39 1,55 1,56 1,61 1,72 1,74 1,76 1,82 1,83 1,85 1,87 1,88 1,92 1,114 1,123 1,131 1,148 1,152 1,153 1,164 1,171 1,177 1,196 1,204 1,210 1,222 1,228 1,257 1,267 1,277 1,298 1,299 1,309 1,321 1,324 1,328 1,329 1,338 1,343 1,347 1,350 1,361 1,365 1,369 1,388 1,391 1,409 1,416 1,423 1,426 1,427 1,433 1,449 1,453 1,470 1,471 1,497 1,518 1,520 1,523 1,528 1,529 1,538 1,541 1,548 1,559 1,560 1,567 1,574 1,577 1,578 1,585 1,615 1,616 1,628 1,645 1,646 1,647 1,659 1,660 1,678 1,679 1,693 1,699 1,707 1,709 1,714 1,738 1,748 1,749 1,763 1,779 1,782 1,783 1,788 1,793 1,798 1,807 1,822 1,831 1,837 1,841 1,842 1,854 1,865 1,867 1,871 1,872 1,875 1,883 1,893 1,895 1,904 1,913 1}
{4 1,9 1,32 1,37 1,56 1,61 1,70 1,82 1,88 1,94 1,112 1,114 1,115 1,123 1,152 1,168 1,178 1,200 1,204 1,213 1,225 1,239 1,243 1,247 1,277 1,286 1,292 1,300 1,302 1,307 1,321 1,335 1,339 1,361 1,365 1,369 1,386 1,388 1,391 1,394 1,409 1,428 1,444 1,447 1,461 1,468 1,478 1,493 1,497 1,508 1,518 1,528 1,536 1,537 1,541 1,542 1,552 1,562 1,591 1,592 1,602 1,615 1,657 1,659 1,669 1,683 1,703 1,714 1,725 1,746 1,752 1,753 1,755 1,763 1,782 1,783 1,785 1,792 1,793 1,796 1,807 1,813 1,824 1,829 1,834 1,848 1,854 1,867 1,869 1,871 1,895 1,909 1,913 1}
{13 1,51 1,114 1,168 1,207 1,212 1,222 1,300 1,313 1,336 1,357 1,361 1,376 1,396 1,455 1,470 1,497 1,518 1,536 1,714 1,744 1,785 1,790 1,798 1,807 1,819 1,883 1,909 1,911 1}
{4 1,6 1,19 1,26 1,37 1,39 1,47 1,55 1,114 1,115 1,117 1,123 1,168 1,205 1,218 1,229 1,260 1,277 1,302 1,329 1,361 1,365 1,369 1,388 1,391 1,426 1,432 1,470 1,497 1,515 1,536 1,539 1,557 1,603 1,616 1,629 1,650 1,657 1,685 1,693 1,694 1,709 1,714 1,728 1,758 1,763 1,782 1,783 1,788 1,807 1,818 1,840 1,873 1,883 1,892 1,907 1,913 1}
{4 1,6 1,15 1,24 1,29 1,39 1,43 1,45 1,51 1,55 1,70 1,78 1,82 1,85 1,87 1,94 1,110 1,111 1,113 1,114 1,117 1,123 1,150 1,151 1,166 1,177 1,195 1,228 1,234 1,265 1,267 1,270 1,277 1,290 1,300 1,301 1,310 1,317 1,320 1,328 1,329 1,332 1,336 1,343 1,357 1,361 1,365 1,369 1,386 1,388 1,391 1,392 1,402 1,414 1,416 1,420 1,421 1,424 1,433 1,442 1,468 1,479 1,488 1,491 1,493 1,501 1,509 1,528 1,536 1,537 1,538 1,539 1,553 1,567 1,573 1,609 1,611 1,614 1,629 1,630 1,652 1,674 1,689 1,696 1,703 1,709 1,714 1,725 1,750 1,753 1,779 1,782 1,783 1,792 1,793 1,796 1,800 1,804 1,807 1,810 1,812 1,822 1,831 1,834 1,835 1,854 1,867 1,869 1,879 1,883 1,895 1,904 1,913 1}
{7 1,37 1,39 1,43 1,47 1,51 1,55 1,56 1,58 1,71 1,73 1,82 1,85 1,114 1,115 1,117 1,123 1,152 1,171 1,175 1,179 1,189 1,209 1,218 1,220 1,228 1,238 1,244 1,260 1,266 1,279 1,286 1,319 1,328 1,329 1,345 1,358 1,361 1,365 1,369 1,388 1,391 1,399 1,402 1,404 1,431 1,433 1,453 1,460 1,463 1,465 1,478 1,492 1,495 1,496 1,515 1,525 1,528 1,536 1,565 1,567 1,577 1,581 1,605 1,629 1,657 1,660 1,668 1,703 1,714 1,733 1,735 1,746 1,761 1,764 1,770 1,782 1,783 1,789 1,796 1,799 1,807 1,812 1,815 1,817 1,831 1,834 1,852 1,854 1,875 1,909 1}
{4 1,11 1,19 1,24 1,32 1,33 1,37 1,39 1,41 1,43 1,46 1,51 1,54 1,55 1,56 1,58 1,61 1,84 1,88 1,91 1,93 1,97 1,107 1,110 1,114 1,115 1,121 1,128 1,158 1,165 1,204 1,209 1,210 1,228 1,236 1,243 1,245 1,248 1,251 1,275 1,277 1,280 1,286 1,308 1,310 1,328 1,329 1,338 1,339 1,361 1,369 1,376 1,377 1,388 1,389 1,391 1,392 1,402 1,409 1,410 1,425 1,431 1,433 1,444 1,453 1,460 1,470 1,478 1,491 1,493 1,497 1,498 1,518 1,520 1,526 1,528 1,536 1,538 1,539 1,541 1,552 1,554 1,567 1,630 1,657 1,667 1,693 1,696 1,709 1,714 1,739 1,763 1,764 1,766 1,775 1,782 1,783 1,785 1,788 1,793 1,796 1,799 1,800 1,802 1,804 1,807 1,809 1,831 1,852 1,854 1,858 1,859 1,867 1,869 1,873 1,879 1,883 1,884 1,909 1,913 1}
{4 1,6 1,8 1,37 1,39 1,48 1,49 1,55 1,56 1,61 1,64 1,82 1,86 1,168 1,270 1,277 1,286 1,292 1,310 1,319 1,328 1,342 1,367 1,369 1,387 1,388 1,402 1,420 1,433 1,449 1,460 1,490 1,497 1,501 1,509 1,513 1,518 1,525 1,528 1,529 1,536 1,538 1,553 1,613 1,615 1,642 1,650 1,657 1,667 1,671 1,672 1,694 1,699 1,720 1,725 1,733 1,765 1,782 1,783 1,784 1,788 1,790 1,792 1,796 1,798 1,807 1,827 1,836 1,847 1,855 1,859 1,865 1,867 1,869 1,872 1,875 1,881 1,883 1,894 1,913 1}
{4 1,39 1,55 1,76 1,82 1,91 1,110 1,114 1,123 1,152 1,177 1,209 1,228 1,277 1,297 1,318 1,328 1,332 1,361 1,365 1,369 1,388 1,391 1,397 1,398 1,433 1,439 1,458 1,462 1,505 1,508 1,510 1,512 1,515 1,518 1,521 1,528 1,536 1,538 1,619 1,630 1,631 1,639 1,657 1,659 1,682 1,714 1,746 1,782 1,783 1,790 1,807 1,812 1,813 1,832 1,842 1,846 1,849 1,854 1,858 1,861 1,868 1,873 1}
{4 1,7 1,8 1,10 1,14 1,16 1,23 1,37 1,39 1,43 1,48 1,49 1,51 1,56 1,61 1,64 1,68 1,82 1,90 1,95 1,98 1,100 1,102 1,106 1,110 1,115 1,116 1,117 1,120 1,126 1,131 1,134 1,140 1,149 1,150 1,151 1,152 1,164 1,171 1,172 1,177 1,180 1,181 1,184 1,185 1,222 1,228 1,234 1,235 1,237 1,242 1,258 1,274 1,277 1,293 1,296 1,299 1,311 1,315 1,320 1,327 1,328 1,329 1,334 1,361 1,362 1,369 1,374 1,388 1,393 1,394 1,396 1,398 1,399 1,412 1,414 1,435 1,436 1,453 1,454 1,461 1,464 1,466 1,468 1,473 1,474 1,477 1,479 1,491 1,492 1,493 1,496 1,501 1,506 1,507 1,515 1,516 1,518 1,528 1,536 1,538 1,539 1,546 1,555 1,562 1,565 1,580 1,587 1,594 1,611 1,614 1,619 1,627 1,632 1,642 1,646 1,650 1,657 1,662 1,671 1,683 1,685 1,687 1,695 1,745 1,753 1,755 1,763 1,771 1,772 1,779 1,782 1,783 1,785 1,795 1,796 1,797 1,807 1,824 1,826 1,827 1,833 1,835 1,851 1,855 1,858 1,879 1,893 1,906 1,909 1,911 1,913 1}
{4 1,6 1,24 1,29 1,39 1,43 1,45 1,46 1,51 1,55 1,56 1,61 1,82 1,121 1,123 1,160 1,168 1,207 1,228 1,235 1,270 1,277 1,280 1,286 1,303 1,308 1,321 1,329 1,335 1,358 1,361 1,365 1,369 1,377 1,383 1,388 1,391 1,409 1,411 1,416 1,440 1,453 1,470 1,491 1,497 1,510 1,518 1,528 1,533 1,535 1,536 1,539 1,542 1,552 1,581 1,593 1,607 1,633 1,660 1,668 1,707 1,709 1,743 1,775 1,783 1,790 1,796 1,807 1,809 1,834 1,849 1,854 1,869 1,913 1}
{4 1,24 1,27 1,29 1,37 1,39 1,43 1,45 1,51 1,55 1,66 1,75 1,78 1,82 1,83 1,87 1,101 1,114 1,115 1,123 1,130 1,153 1,170 1,181 1,195 1,199 1,204 1,210 1,228 1,232 1,235 1,248 1,269 1,277 1,280 1,300 1,302 1,308 1,317 1,325 1,328 1,329 1,353 1,357 1,359 1,361 1,365 1,369 1,374 1,388 1,391 1,402 1,409 1,426 1,450 1,453 1,463 1,469 1,470 1,478 1,493 1,497 1,515 1,518 1,520 1,528 1,529 1,536 1,539 1,541 1,550 1,552 1,567 1,574 1,576 1,578 1,584 1,585 1,588 1,624 1,625 1,647 1,655 1,656 1,709 1,714 1,716 1,717 1,744 1,752 1,763 1,775 1,782 1,783 1,784 1,786 1,788 1,790 1,792 1,807 1,812 1,819 1,834 1,836 1,846 1,859 1,865 1,867 1,868 1,869 1,875 1,883 1,895 1,909 1}
{4 1,8 1,9 1,23 1,34 1,51 1,57 1,64 1,68 1,82 1,90 1,91 1,98 1,102 1,110 1,111 1,115 1,116 1,117 1,149 1,150 1,151 1,152 1,171 1,172 1,177 1,180 1,181 1,185 1,200 1,210 1,212 1,222 1,228 1,234 1,237 1,258 1,282 1,293 1,296 1,297 1,311 1,315 1,320 1,327 1,329 1,337 1,339 1,345 1,361 1,365 1,369 1,388 1,391 1,393 1,394 1,399 1,400 1,401 1,402 1,403 1,412 1,431 1,436 1,446 1,453 1,460 1,464 1,477 1,479 1,498 1,501 1,506 1,507 1,514 1,515 1,525 1,528 1,541 1,546 1,555 1,565 1,567 1,619 1,635 1,646 1,650 1,654 1,657 1,662 1,671 1,708 1,735 1,741 1,745 1,746 1,753 1,763 1,783 1,797 1,803 1,807 1,811 1,815 1,825 1,826 1,827 1,835 1,851 1,855 1,863 1,867 1,874 1,875 1,879 1,880 1,892 1,893 1,906 1,909 1,913 1}
{4 1,24 1,39 1,40 1,43 1,45 1,49 1,56 1,61 1,64 1,78 1,82 1,85 1,86 1,88 1,110 1,115 1,123 1,151 1,155 1,156 1,166 1,172 1,186 1,204 1,207 1,228 1,246 1,260 1,270 1,277 1,292 1,300 1,307 1,321 1,328 1,329 1,331 1,357 1,361 1,363 1,365 1,369 1,370 1,387 1,388 1,391 1,392 1,402 1,420 1,425 1,441 1,451 1,454 1,457 1,460 1,478 1,490 1,491 1,493 1,497 1,501 1,509 1,510 1,515 1,518 1,521 1,528 1,536 1,538 1,539 1,541 1,548 1,552 1,553 1,580 1,587 1,609 1,611 1,613 1,625 1,629 1,630 1,631 1,642 1,650 1,652 1,653 1,657 1,672 1,687 1,689 1,699 1,702 1,703 1,707 1,714 1,725 1,733 1,736 1,765 1,779 1,782 1,783 1,790 1,793 1,796 1,807 1,826 1,831 1,836 1,847 1,854 1,855 1,858 1,859 1,863 1,865 1,867 1,868 1,869 1,872 1,875 1,883 1,891 1,895 1,907 1,909 1,911 1,913 1}
{4 1,39 1,43 1,56 1,61 1,70 1,72 1,82 1,84 1,85 1,114 1,132 1,145 1,168 1,277 1,292 1,319 1,328 1,361 1,365 1,369 1,388 1,391 1,409 1,438 1,457 1,504 1,509 1,510 1,528 1,536 1,541 1,548 1,571 1,572 1,638 1,657 1,679 1,695 1,734 1,743 1,746 1,751 1,752 1,768 1,782 1,783 1,788 1,796 1,798 1,804 1,807 1,852 1,854 1,865 1,875 1,883 1,895 1}
{4 1,6 1,39 1,55 1,61 1,82 1,88 1,110 1,111 1,123 1,135 1,165 1,228 1,263 1,277 1,328 1,357 1,361 1,369 1,414 1,442 1,453 1,493 1,536 1,657 1,671 1,687 1,709 1,752 1,764 1,782 1,783 1,790 1,793 1,796 1,807 1,834 1,895 1,909 1,911 1,913 1}
{4 1,6 1,17 1,24 1,28 1,36 1,39 1,43 1,51 1,56 1,61 1,75 1,83 1,86 1,93 1,114 1,135 1,152 1,154 1,156 1,165 1,168 1,172 1,194 1,196 1,199 1,204 1,211 1,222 1,259 1,260 1,264 1,270 1,271 1,273 1,277 1,286 1,303 1,311 1,321 1,329 1,345 1,358 1,360 1,361 1,363 1,369 1,388 1,391 1,411 1,416 1,434 1,437 1,441 1,453 1,457 1,488 1,490 1,491 1,495 1,501 1,509 1,515 1,518 1,528 1,529 1,536 1,541 1,570 1,580 1,591 1,596 1,657 1,679 1,700 1,701 1,714 1,716 1,725 1,737 1,752 1,758 1,761 1,763 1,767 1,779 1,782 1,783 1,788 1,789 1,790 1,791 1,796 1,807 1,813 1,826 1,834 1,849 1,852 1,854 1,858 1,865 1,875 1,879 1,883 1,890 1,895 1,900 1,909 1,911 1,913 1}
{4 1,6 1,7 1,14 1,15 1,24 1,29 1,32 1,37 1,39 1,43 1,51 1,54 1,55 1,56 1,61 1,66 1,70 1,76 1,77 1,82 1,83 1,85 1,86 1,87 1,88 1,91 1,92 1,94 1,97 1,106 1,114 1,115 1,123 1,127 1,128 1,134 1,136 1,162 1,168 1,169 1,180 1,195 1,198 1,204 1,207 1,209 1,210 1,211 1,228 1,239 1,243 1,244 1,245 1,259 1,261 1,262 1,266 1,271 1,277 1,286 1,292 1,294 1,295 1,301 1,303 1,305 1,308 1,313 1,316 1,317 1,318 1,319 1,321 1,323 1,328 1,329 1,331 1,332 1,333 1,335 1,339 1,344 1,345 1,347 1,353 1,354 1,357 1,358 1,361 1,365 1,369 1,386 1,388 1,389 1,391 1,402 1,407 1,409 1,412 1,425 1,426 1,427 1,428 1,433 1,434 1,437 1,441 1,442 1,449 1,454 1,455 1,459 1,463 1,464 1,469 1,471 1,475 1,487 1,491 1,492 1,493 1,495 1,497 1,510 1,515 1,518 1,521 1,523 1,524 1,525 1,528 1,529 1,536 1,537 1,538 1,539 1,540 1,541 1,552 1,559 1,567 1,574 1,575 1,576 1,583 1,584 1,585 1,591 1,592 1,597 1,601 1,615 1,618 1,625 1,630 1,631 1,643 1,655 1,657 1,659 1,667 1,668 1,676 1,679 1,695 1,698 1,708 1,709 1,710 1,714 1,715 1,716 1,744 1,745 1,746 1,755 1,763 1,764 1,769 1,770 1,779 1,782 1,783 1,784 1,785 1,786 1,788 1,789 1,790 1,792 1,793 1,796 1,798 1,804 1,807 1,809 1,814 1,822 1,824 1,834 1,849 1,854 1,858 1,859 1,863 1,865 1,867 1,869 1,870 1,873 1,875 1,877 1,879 1,880 1,881 1,883 1,885 1,895 1,898 1,901 1,902 1,904 1,906 1,909 1,911 1}
{4 1,6 1,43 1,45 1,47 1,51 1,55 1,56 1,61 1,85 1,87 1,103 1,104 1,115 1,123 1,130 1,162 1,181 1,201 1,204 1,248 1,270 1,327 1,328 1,331 1,358 1,361 1,369 1,377 1,388 1,391 1,409 1,431 1,470 1,474 1,491 1,515 1,518 1,528 1,550 1,552 1,567 1,601 1,618 1,633 1,657 1,660 1,715 1,752 1,760 1,775 1,782 1,783 1,788 1,796 1,804 1,807 1,870 1,872 1,873 1,875 1,883 1,905 1,909 1,913 1}
{4 1,24 1,39 1,51 1,56 1,57 1,79 1,82 1,86 1,94 1,97 1,104 1,114 1,123 1,148 1,204 1,267 1,271 1,286 1,320 1,329 1,331 1,344 1,345 1,357 1,360 1,361 1,363 1,364 1,365 1,368 1,369 1,388 1,391 1,392 1,402 1,410 1,432 1,433 1,463 1,470 1,471 1,478 1,497 1,509 1,518 1,528 1,529 1,536 1,541 1,549 1,613 1,618 1,638 1,667 1,679 1,694 1,709 1,714 1,716 1,719 1,725 1,752 1,782 1,783 1,793 1,807 1,823 1,854 1,861 1,867 1,898 1,909 1,913 1}
{4 1,6 1,27 1,39 1,42 1,51 1,55 1,56 1,67 1,87 1,97 1,106 1,114 1,116 1,123 1,166 1,168 1,170 1,171 1,177 1,196 1,207 1,210 1,218 1,222 1,228 1,233 1,243 1,256 1,277 1,286 1,299 1,303 1,308 1,310 1,317 1,320 1,321 1,329 1,331 1,332 1,336 1,343 1,344 1,345 1,346 1,348 1,353 1,357 1,359 1,361 1,369 1,388 1,391 1,402 1,412 1,417 1,428 1,435 1,453 1,457 1,460 1,463 1,491 1,515 1,518 1,521 1,524 1,528 1,536 1,586 1,600 1,601 1,616 1,618 1,619 1,647 1,657 1,667 1,676 1,677 1,695 1,716 1,763 1,779 1,783 1,785 1,789 1,798 1,804 1,807 1,851 1,854 1,865 1,867 1,872 1,900 1,909 1,911 1}
{6 1,7 1,12 1,18 1,29 1,32 1,37 1,39 1,45 1,55 1,56 1,88 1,130 1,144 1,152 1,157 1,199 1,204 1,207 1,233 1,242 1,251 1,270 1,275 1,276 1,277 1,286 1,288 1,291 1,326 1,328 1,329 1,335 1,357 1,361 1,369 1,388 1,391 1,395 1,426 1,454 1,457 1,463 1,493 1,494 1,497 1,503 1,518 1,528 1,538 1,539 1,541 1,548 1,551 1,599 1,600 1,627 1,640 1,657 1,717 1,723 1,745 1,752 1,759 1,760 1,782 1,783 1,788 1,790 1,796 1,798 1,807 1,820 1,823 1,828 1,854 1,868 1,875 1,904 1,909 1,913 1}
{4 1,23 1,29 1,32 1,39 1,55 1,56 1,61 1,75 1,82 1,87 1,94 1,114 1,115 1,166 1,167 1,168 1,169 1,209 1,211 1,212 1,228 1,237 1,238 1,267 1,277 1,286 1,312 1,326 1,329 1,335 1,337 1,339 1,342 1,357 1,361 1,369 1,372 1,380 1,386 1,388 1,389 1,391 1,402 1,409 1,417 1,420 1,433 1,453 1,477 1,480 1,495 1,496 1,501 1,518 1,522 1,528 1,536 1,539 1,548 1,559 1,567 1,609 1,615 1,623 1,653 1,657 1,707 1,709 1,711 1,721 1,725 1,732 1,763 1,767 1,772 1,779 1,782 1,783 1,807 1,815 1,825 1,835 1,837 1,840 1,849 1,854 1,858 1,859 1,877 1,891 1,895 1,906 1,909 1,912 1,913 1}
{22 1,24 1,37 1,39 1,51 1,56 1,61 1,73 1,105 1,115 1,117 1,119 1,214 1,224 1,235 1,271 1,277 1,280 1,282 1,320 1,328 1,339 1,342 1,345 1,359 1,369 1,388 1,391 1,400 1,414 1,417 1,423 1,425 1,453 1,500 1,501 1,524 1,528 1,584 1,585 1,610 1,657 1,676 1,709 1,714 1,769 1,770 1,783 1,788 1,797 1,815 1,837 1,849 1,854 1,874 1,883 1}
{4 1,24 1,29 1,37 1,39 1,51 1,55 1,82 1,88 1,114 1,128 1,168 1,181 1,210 1,228 1,243 1,244 1,277 1,300 1,308 1,321 1,328 1,339 1,345 1,361 1,365 1,369 1,388 1,391 1,409 1,433 1,437 1,454 1,468 1,515 1,516 1,518 1,528 1,539 1,541 1,569 1,684 1,705 1,709 1,714 1,763 1,782 1,783 1,788 1,793 1,796 1,807 1,820 1,856 1,875 1,879 1,887 1,913 1}
{4 1,24 1,28 1,29 1,37 1,39 1,43 1,51 1,82 1,83 1,94 1,114 1,115 1,123 1,148 1,170 1,260 1,277 1,329 1,332 1,339 1,361 1,365 1,369 1,388 1,441 1,468 1,497 1,528 1,536 1,542 1,545 1,591 1,603 1,616 1,628 1,657 1,669 1,712 1,752 1,753 1,781 1,782 1,783 1,788 1,789 1,790 1,796 1,802 1,807 1,821 1,837 1,854 1,867 1,869 1,883 1,913 1}
{24 1,39 1,51 1,61 1,62 1,105 1,117 1,151 1,173 1,214 1,224 1,277 1,320 1,339 1,342 1,356 1,359 1,361 1,369 1,388 1,391 1,400 1,414 1,417 1,423 1,425 1,453 1,468 1,501 1,514 1,524 1,571 1,575 1,579 1,584 1,585 1,610 1,657 1,676 1,709 1,714 1,783 1,788 1,883 1,910 1}
{4 1,29 1,32 1,37 1,39 1,55 1,56 1,82 1,87 1,115 1,123 1,130 1,152 1,165 1,171 1,199 1,204 1,208 1,221 1,228 1,270 1,327 1,342 1,357 1,361 1,365 1,369 1,372 1,387 1,388 1,391 1,456 1,463 1,468 1,478 1,494 1,515 1,518 1,528 1,541 1,548 1,657 1,727 1,745 1,758 1,763 1,782 1,783 1,796 1,802 1,807 1,823 1,828 1,867 1,883 1,913 1}
{4 1,23 1,29 1,39 1,51 1,70 1,80 1,83 1,114 1,115 1,123 1,130 1,158 1,204 1,211 1,225 1,228 1,232 1,267 1,277 1,286 1,300 1,326 1,329 1,339 1,342 1,361 1,365 1,369 1,383 1,386 1,388 1,391 1,402 1,453 1,457 1,477 1,478 1,483 1,491 1,497 1,517 1,518 1,522 1,528 1,529 1,536 1,539 1,541 1,548 1,709 1,725 1,741 1,752 1,768 1,779 1,782 1,783 1,788 1,789 1,790 1,793 1,796 1,804 1,807 1,829 1,832 1,835 1,858 1,859 1,863 1,867 1,875 1,909 1,913 1}
{4 1,24 1,29 1,37 1,39 1,51 1,54 1,114 1,120 1,123 1,223 1,243 1,268 1,277 1,300 1,329 1,353 1,361 1,365 1,369 1,388 1,417 1,423 1,436 1,438 1,441 1,442 1,450 1,458 1,523 1,528 1,536 1,554 1,565 1,573 1,625 1,629 1,745 1,763 1,783 1,784 1,788 1,789 1,790 1,792 1,807 1,849 1,872 1,909 1}
{4 1,6 1,24 1,39 1,56 1,61 1,82 1,88 1,97 1,111 1,123 1,134 1,135 1,168 1,242 1,263 1,270 1,277 1,328 1,357 1,361 1,413 1,414 1,442 1,493 1,528 1,536 1,539 1,601 1,617 1,645 1,671 1,687 1,709 1,752 1,764 1,782 1,783 1,789 1,790 1,796 1,807 1,834 1,840 1,879 1,895 1,909 1,911 1,913 1}
{4 1,5 1,6 1,9 1,15 1,16 1,17 1,18 1,24 1,32 1,33 1,37 1,39 1,41 1,42 1,46 1,49 1,51 1,56 1,57 1,61 1,82 1,86 1,87 1,88 1,91 1,93 1,106 1,111 1,112 1,114 1,115 1,123 1,128 1,143 1,166 1,168 1,176 1,184 1,187 1,195 1,196 1,204 1,209 1,211 1,225 1,233 1,235 1,236 1,238 1,243 1,255 1,267 1,270 1,271 1,277 1,279 1,286 1,289 1,299 1,305 1,307 1,313 1,326 1,329 1,339 1,345 1,346 1,357 1,361 1,363 1,365 1,368 1,369 1,386 1,388 1,391 1,392 1,402 1,419 1,420 1,421 1,428 1,433 1,437 1,439 1,448 1,451 1,454 1,457 1,468 1,470 1,488 1,490 1,491 1,493 1,496 1,509 1,512 1,515 1,518 1,521 1,528 1,529 1,535 1,536 1,538 1,539 1,541 1,542 1,543 1,548 1,551 1,555 1,559 1,561 1,562 1,567 1,580 1,597 1,607 1,609 1,610 1,625 1,629 1,649 1,650 1,652 1,653 1,657 1,660 1,664 1,680 1,686 1,694 1,695 1,696 1,699 1,704 1,714 1,725 1,736 1,739 1,740 1,755 1,761 1,763 1,764 1,769 1,772 1,775 1,777 1,779 1,782 1,783 1,786 1,788 1,789 1,790 1,796 1,798 1,801 1,802 1,804 1,807 1,809 1,810 1,813 1,820 1,823 1,834 1,835 1,836 1,843 1,846 1,847 1,849 1,854 1,858 1,859 1,861 1,863 1,867 1,872 1,875 1,879 1,883 1,890 1,891 1,893 1,898 1,903 1,904 1,906 1,909 1,911 1,913 1}
{252 1,328 1,331 1,388 1,647 1,807 1}
{4 1,24 1,28 1,37 1,39 1,43 1,51 1,56 1,61 1,82 1,88 1,103 1,114 1,123 1,130 1,144 1,157 1,204 1,208 1,210 1,227 1,228 1,270 1,275 1,277 1,305 1,308 1,353 1,361 1,369 1,371 1,372 1,388 1,391 1,393 1,412 1,439 1,442 1,453 1,463 1,467 1,468 1,477 1,478 1,493 1,494 1,495 1,497 1,503 1,528 1,538 1,552 1,615 1,625 1,679 1,696 1,709 1,714 1,737 1,741 1,763 1,782 1,783 1,785 1,790 1,792 1,796 1,799 1,804 1,807 1,812 1,836 1,841 1,846 1,858 1,859 1,867 1,869 1,877 1,879 1,883 1,909 1,911 1,913 1}
{4 1,9 1,18 1,21 1,29 1,37 1,39 1,41 1,42 1,43 1,46 1,49 1,51 1,56 1,61 1,82 1,83 1,85 1,86 1,91 1,92 1,111 1,112 1,114 1,115 1,123 1,130 1,151 1,166 1,168 1,177 1,196 1,204 1,211 1,214 1,223 1,240 1,242 1,243 1,245 1,250 1,260 1,267 1,268 1,271 1,277 1,278 1,286 1,299 1,300 1,312 1,313 1,321 1,328 1,329 1,332 1,354 1,357 1,361 1,363 1,365 1,369 1,386 1,388 1,389 1,391 1,402 1,404 1,409 1,411 1,412 1,417 1,420 1,425 1,427 1,428 1,433 1,437 1,439 1,441 1,449 1,453 1,454 1,456 1,457 1,463 1,465 1,470 1,478 1,481 1,482 1,488 1,489 1,490 1,491 1,497 1,509 1,512 1,518 1,528 1,531 1,535 1,536 1,538 1,539 1,541 1,551 1,552 1,553 1,559 1,561 1,607 1,652 1,657 1,659 1,660 1,665 1,667 1,679 1,684 1,691 1,695 1,696 1,700 1,703 1,704 1,707 1,709 1,714 1,716 1,725 1,728 1,735 1,736 1,746 1,752 1,755 1,761 1,763 1,764 1,769 1,771 1,772 1,774 1,775 1,777 1,779 1,780 1,782 1,783 1,784 1,786 1,788 1,789 1,790 1,791 1,796 1,798 1,804 1,805 1,807 1,809 1,810 1,813 1,823 1,825 1,835 1,843 1,846 1,849 1,854 1,859 1,861 1,863 1,864 1,867 1,869 1,874 1,875 1,883 1,895 1,898 1,900 1,904 1,909 1,911 1,913 1}
{4 1,6 1,7 1,12 1,22 1,24 1,37 1,39 1,41 1,43 1,44 1,51 1,56 1,61 1,66 1,70 1,71 1,75 1,82 1,84 1,85 1,86 1,89 1,91 1,92 1,106 1,114 1,115 1,127 1,162 1,171 1,180 1,188 1,195 1,199 1,208 1,210 1,223 1,228 1,235 1,241 1,243 1,244 1,252 1,269 1,271 1,272 1,277 1,286 1,296 1,301 1,308 1,321 1,324 1,325 1,328 1,329 1,332 1,336 1,339 1,343 1,344 1,345 1,349 1,358 1,361 1,369 1,374 1,377 1,383 1,388 1,391 1,393 1,402 1,409 1,417 1,423 1,435 1,442 1,445 1,453 1,464 1,468 1,479 1,500 1,508 1,512 1,514 1,515 1,518 1,528 1,529 1,536 1,538 1,539 1,541 1,548 1,559 1,580 1,585 1,600 1,601 1,618 1,641 1,657 1,677 1,680 1,703 1,709 1,714 1,744 1,745 1,755 1,763 1,779 1,782 1,783 1,784 1,795 1,796 1,799 1,801 1,804 1,807 1,812 1,823 1,826 1,834 1,841 1,844 1,849 1,854 1,867 1,869 1,875 1,877 1,883 1,885 1,895 1,901 1,903 1,904 1}
{4 1,32 1,37 1,39 1,43 1,54 1,55 1,56 1,60 1,61 1,89 1,91 1,93 1,110 1,114 1,123 1,128 1,158 1,165 1,204 1,210 1,228 1,236 1,245 1,277 1,300 1,305 1,321 1,328 1,329 1,339 1,352 1,361 1,365 1,369 1,376 1,377 1,385 1,388 1,391 1,392 1,393 1,409 1,410 1,429 1,442 1,444 1,453 1,470 1,478 1,493 1,497 1,520 1,526 1,528 1,536 1,538 1,541 1,547 1,554 1,637 1,657 1,667 1,668 1,696 1,763 1,764 1,766 1,782 1,783 1,793 1,796 1,804 1,807 1,821 1,829 1,832 1,834 1,859 1,867 1,879 1,883 1,909 1,913 1}
{37 1,55 1,82 1,166 1,228 1,230 1,237 1,365 1,369 1,391 1,428 1,508 1,615 1,647 1,659 1,715 1,782 1,783 1,807 1,836 1,849 1,854 1,909 1,913 1}
{4 1,6 1,82 1,86 1,194 1,235 1,239 1,284 1,319 1,329 1,342 1,344 1,362 1,388 1,391 1,457 1,468 1,479 1,528 1,635 1,647 1,724 1,773 1,783 1,786 1,789 1,807 1,833 1,863 1,909 1}
{4 1,37 1,39 1,51 1,55 1,59 1,82 1,85 1,87 1,115 1,121 1,130 1,134 1,168 1,182 1,228 1,230 1,232 1,277 1,280 1,286 1,324 1,329 1,335 1,361 1,365 1,369 1,371 1,374 1,388 1,391 1,407 1,442 1,482 1,491 1,510 1,518 1,528 1,532 1,538 1,541 1,548 1,554 1,568 1,570 1,571 1,633 1,637 1,722 1,737 1,764 1,779 1,782 1,783 1,799 1,800 1,807 1,834 1,852 1,867 1,869 1,872 1,883 1,889 1,909 1,913 1}
{4 1,6 1,39 1,56 1,61 1,82 1,148 1,168 1,277 1,286 1,329 1,357 1,361 1,365 1,388 1,391 1,421 1,441 1,456 1,521 1,528 1,538 1,541 1,616 1,657 1,679 1,695 1,716 1,764 1,780 1,783 1,786 1,807 1,849 1,863 1,865 1,885 1,895 1,909 1,911 1,913 1}
{}
{4 1,24 1,37 1,39 1,43 1,51 1,55 1,56 1,61 1,82 1,83 1,92 1,99 1,103 1,114 1,115 1,123 1,130 1,144 1,157 1,204 1,208 1,210 1,227 1,228 1,242 1,275 1,276 1,277 1,280 1,305 1,308 1,328 1,329 1,339 1,353 1,357 1,361 1,365 1,369 1,372 1,388 1,389 1,391 1,402 1,426 1,433 1,441 1,450 1,453 1,463 1,467 1,468 1,470 1,471 1,477 1,478 1,493 1,494 1,495 1,497 1,503 1,515 1,518 1,528 1,538 1,540 1,552 1,567 1,604 1,615 1,625 1,668 1,695 1,709 1,714 1,763 1,782 1,783 1,785 1,790 1,792 1,796 1,799 1,804 1,807 1,812 1,836 1,841 1,846 1,859 1,869 1,877 1,879 1,883 1,887 1,913 1}
{4 1,23 1,31 1,39 1,55 1,104 1,114 1,140 1,176 1,212 1,213 1,224 1,228 1,267 1,271 1,275 1,277 1,320 1,321 1,325 1,329 1,331 1,332 1,344 1,345 1,361 1,364 1,365 1,369 1,388 1,391 1,399 1,402 1,411 1,432 1,433 1,441 1,453 1,455 1,460 1,491 1,493 1,497 1,522 1,528 1,536 1,552 1,559 1,613 1,632 1,657 1,659 1,667 1,679 1,694 1,752 1,754 1,755 1,763 1,779 1,782 1,783 1,804 1,807 1,854 1,861 1,869 1,883 1,895 1,913 1}
{4 1,6 1,27 1,37 1,39 1,43 1,51 1,55 1,56 1,66 1,75 1,83 1,85 1,86 1,87 1,91 1,92 1,114 1,115 1,116 1,117 1,135 1,152 1,153 1,168 1,171 1,196 1,204 1,208 1,210 1,228 1,243 1,260 1,277 1,293 1,308 1,310 1,320 1,321 1,328 1,329 1,332 1,344 1,346 1,349 1,359 1,361 1,369 1,388 1,390 1,399 1,417 1,433 1,449 1,459 1,491 1,507 1,524 1,528 1,536 1,539 1,548 1,567 1,584 1,588 1,601 1,619 1,624 1,630 1,667 1,676 1,677 1,679 1,709 1,714 1,763 1,773 1,779 1,782 1,783 1,784 1,790 1,796 1,807 1,815 1,832 1,834 1,844 1,846 1,854 1,867 1,872 1,873 1,883 1,903 1,906 1,909 1}
{4 1,45 1,207 1,409 1,528 1,783 1,913 1}
{4 1,6 1,15 1,24 1,37 1,55 1,86 1,114 1,122 1,152 1,168 1,182 1,204 1,228 1,245 1,270 1,277 1,300 1,321 1,328 1,329 1,339 1,357 1,361 1,369 1,370 1,376 1,377 1,388 1,390 1,411 1,433 1,464 1,468 1,469 1,470 1,500 1,501 1,515 1,527 1,528 1,536 1,538 1,552 1,602 1,609 1,612 1,616 1,657 1,660 1,673 1,681 1,683 1,763 1,781 1,783 1,788 1,790 1,796 1,797 1,807 1,815 1,834 1,852 1,856 1,859 1,883 1,909 1,913 1}
{4 1,6 1,24 1,27 1,39 1,51 1,55 1,61 1,83 1,114 1,117 1,123 1,165 1,171 1,177 1,208 1,211 1,260 1,262 1,271 1,282 1,328 1,329 1,332 1,347 1,357 1,361 1,365 1,368 1,369 1,399 1,409 1,411 1,416 1,425 1,426 1,436 1,453 1,463 1,470 1,491 1,493 1,528 1,529 1,532 1,536 1,537 1,580 1,584 1,600 1,624 1,656 1,657 1,755 1,763 1,767 1,769 1,782 1,783 1,790 1,796 1,797 1,807 1,823 1,849 1,852 1,874 1,879 1,882 1,883 1,909 1}
{4 1,6 1,9 1,11 1,14 1,24 1,29 1,30 1,32 1,39 1,43 1,45 1,51 1,55 1,56 1,59 1,61 1,85 1,87 1,103 1,114 1,115 1,123 1,195 1,204 1,205 1,210 1,215 1,222 1,248 1,253 1,270 1,271 1,277 1,286 1,303 1,305 1,307 1,321 1,328 1,329 1,331 1,332 1,336 1,339 1,345 1,361 1,365 1,369 1,377 1,385 1,386 1,388 1,391 1,409 1,425 1,449 1,453 1,456 1,463 1,470 1,473 1,475 1,497 1,517 1,518 1,521 1,528 1,536 1,539 1,541 1,551 1,552 1,553 1,560 1,583 1,594 1,604 1,615 1,618 1,630 1,631 1,633 1,647 1,657 1,679 1,680 1,696 1,703 1,709 1,737 1,746 1,755 1,763 1,778 1,782 1,783 1,786 1,789 1,790 1,796 1,807 1,818 1,822 1,824 1,834 1,852 1,854 1,859 1,863 1,867 1,870 1,872 1,875 1,878 1,883 1,895 1,909 1,913 1}
{4 1,14 1,18 1,39 1,61 1,168 1,183 1,286 1,312 1,321 1,329 1,335 1,361 1,363 1,470 1,501 1,506 1,528 1,538 1,567 1,593 1,607 1,691 1,714 1,782 1,783 1,785 1,793 1,796 1,807 1,854 1,909 1,913 1}
{4 1,39 1,45 1,55 1,56 1,78 1,82 1,86 1,106 1,110 1,196 1,228 1,264 1,270 1,277 1,294 1,297 1,328 1,332 1,347 1,349 1,365 1,369 1,380 1,385 1,388 1,398 1,419 1,426 1,462 1,515 1,528 1,536 1,577 1,583 1,597 1,619 1,647 1,657 1,679 1,714 1,718 1,763 1,783 1,796 1,807 1,823 1,854 1,858 1,867 1,875 1,879 1,883 1,904 1,909 1}
{4 1,6 1,11 1,14 1,15 1,18 1,19 1,24 1,26 1,29 1,31 1,32 1,37 1,39 1,42 1,43 1,44 1,45 1,47 1,51 1,55 1,56 1,61 1,82 1,83 1,85 1,86 1,87 1,103 1,104 1,114 1,115 1,117 1,123 1,125 1,128 1,130 1,132 1,162 1,170 1,181 1,201 1,204 1,208 1,210 1,214 1,222 1,228 1,241 1,242 1,248 1,250 1,259 1,264 1,267 1,269 1,270 1,277 1,280 1,283 1,286 1,289 1,293 1,300 1,321 1,326 1,327 1,328 1,329 1,330 1,331 1,332 1,345 1,352 1,353 1,358 1,361 1,365 1,369 1,377 1,384 1,386 1,388 1,391 1,402 1,409 1,417 1,431 1,435 1,439 1,441 1,449 1,453 1,455 1,470 1,472 1,474 1,484 1,491 1,493 1,497 1,503 1,507 1,508 1,509 1,515 1,518 1,521 1,528 1,529 1,536 1,538 1,539 1,541 1,548 1,550 1,552 1,553 1,561 1,564 1,567 1,570 1,573 1,580 1,601 1,604 1,613 1,616 1,618 1,625 1,627 1,631 1,633 1,634 1,640 1,645 1,647 1,649 1,652 1,657 1,658 1,659 1,660 1,667 1,683 1,700 1,703 1,709 1,714 1,715 1,740 1,746 1,752 1,759 1,760 1,763 1,764 1,775 1,778 1,782 1,783 1,784 1,788 1,790 1,796 1,798 1,804 1,807 1,812 1,818 1,821 1,823 1,843 1,846 1,854 1,858 1,860 1,861 1,867 1,870 1,871 1,872 1,873 1,875 1,879 1,883 1,884 1,885 1,889 1,893 1,895 1,899 1,904 1,905 1,909 1,913 1}
{4 1,10 1,14 1,17 1,24 1,39 1,41 1,49 1,51 1,53 1,55 1,56 1,61 1,64 1,82 1,86 1,87 1,97 1,114 1,115 1,170 1,182 1,185 1,204 1,208 1,220 1,228 1,243 1,245 1,270 1,277 1,280 1,292 1,300 1,317 1,321 1,355 1,357 1,360 1,361 1,365 1,369 1,388 1,389 1,391 1,420 1,432 1,433 1,441 1,457 1,471 1,488 1,491 1,493 1,495 1,497 1,501 1,513 1,516 1,518 1,528 1,532 1,534 1,536 1,539 1,541 1,552 1,567 1,582 1,587 1,601 1,625 1,630 1,638 1,642 1,657 1,681 1,703 1,715 1,733 1,750 1,763 1,782 1,783 1,788 1,790 1,793 1,796 1,798 1,804 1,807 1,820 1,821 1,835 1,847 1,858 1,859 1,867 1,869 1,875 1,877 1,879 1,882 1,883 1,909 1,913 1}
{29 1,39 1,102 1,244 1,286 1,332 1,345 1,369 1,391 1,449 1,508 1,528 1,536 1,601 1,751 1,770 1,783 1,807 1,854 1}
{61 1,207 1,277 1,386 1,391 1,444 1,518 1,541 1,783 1,913 1}
{4 1,37 1,39 1,55 1,61 1,82 1,92 1,130 1,152 1,154 1,168 1,171 1,181 1,228 1,243 1,361 1,363 1,369 1,386 1,388 1,391 1,441 1,515 1,520 1,528 1,537 1,541 1,630 1,679 1,703 1,783 1,788 1,791 1,796 1,807 1,823 1,854 1,865 1,869 1,872 1,879 1,883 1,913 1}
{4 1,13 1,152 1,204 1,261 1,277 1,308 1,345 1,369 1,388 1,417 1,495 1,509 1,528 1,644 1,657 1,783 1,791 1,793 1,812 1,886 1,909 1}
{4 1,15 1,29 1,36 1,37 1,39 1,43 1,51 1,55 1,56 1,65 1,70 1,82 1,83 1,86 1,114 1,115 1,121 1,152 1,169 1,183 1,204 1,207 1,210 1,242 1,243 1,260 1,275 1,277 1,279 1,280 1,308 1,314 1,329 1,357 1,361 1,365 1,369 1,388 1,391 1,392 1,404 1,411 1,430 1,433 1,454 1,457 1,458 1,464 1,466 1,468 1,469 1,478 1,482 1,488 1,491 1,503 1,508 1,515 1,518 1,520 1,528 1,535 1,538 1,539 1,541 1,545 1,554 1,567 1,591 1,635 1,638 1,650 1,657 1,681 1,709 1,714 1,716 1,729 1,746 1,750 1,752 1,763 1,779 1,782 1,783 1,784 1,788 1,790 1,792 1,793 1,796 1,799 1,804 1,807 1,825 1,828 1,829 1,854 1,859 1,865 1,867 1,869 1,872 1,877 1,883 1,895 1,909 1,913 1}
{4 1,37 1,41 1,43 1,55 1,61 1,82 1,149 1,152 1,171 1,228 1,248 1,258 1,271 1,277 1,328 1,361 1,369 1,528 1,538 1,541 1,569 1,671 1,725 1,754 1,782 1,783 1,788 1,796 1,804 1,807 1,854 1,867 1,895 1,913 1}
{4 1,11 1,39 1,41 1,51 1,55 1,61 1,70 1,76 1,82 1,83 1,106 1,114 1,168 1,177 1,195 1,196 1,208 1,210 1,228 1,232 1,271 1,272 1,277 1,308 1,329 1,332 1,345 1,357 1,361 1,369 1,388 1,407 1,453 1,457 1,463 1,477 1,493 1,518 1,528 1,536 1,541 1,552 1,583 1,584 1,585 1,604 1,657 1,677 1,763 1,782 1,783 1,785 1,790 1,793 1,807 1,812 1,823 1,833 1,858 1,859 1,865 1,869 1,880 1,883 1,884 1,898 1,903 1,904 1}
{4 1,35 1,43 1,51 1,55 1,74 1,118 1,123 1,139 1,207 1,217 1,228 1,298 1,309 1,369 1,381 1,388 1,391 1,448 1,471 1,473 1,499 1,518 1,523 1,528 1,538 1,539 1,541 1,578 1,611 1,692 1,706 1,757 1,776 1,782 1,783 1,788 1,791 1,796 1,807 1,812 1,833 1,837 1,842 1,854 1,862 1,867 1,872 1,909 1,913 1}
{0 1,4 1,5 1,6 1,7 1,9 1,14 1,24 1,26 1,29 1,31 1,36 1,37 1,39 1,41 1,43 1,46 1,51 1,53 1,54 1,56 1,61 1,70 1,72 1,74 1,77 1,79 1,80 1,82 1,83 1,85 1,86 1,87 1,93 1,94 1,96 1,101 1,103 1,104 1,106 1,108 1,111 1,112 1,114 1,115 1,123 1,137 1,138 1,142 1,143 1,153 1,160 1,161 1,164 1,166 1,168 1,170 1,174 1,177 1,178 1,182 1,184 1,185 1,192 1,194 1,195 1,196 1,197 1,198 1,199 1,204 1,210 1,213 1,218 1,220 1,222 1,223 1,225 1,227 1,233 1,235 1,236 1,239 1,242 1,243 1,245 1,249 1,251 1,254 1,259 1,267 1,268 1,270 1,271 1,275 1,277 1,286 1,289 1,292 1,300 1,301 1,302 1,304 1,305 1,307 1,308 1,310 1,312 1,314 1,317 1,318 1,319 1,321 1,322 1,324 1,328 1,329 1,330 1,332 1,333 1,339 1,344 1,345 1,346 1,352 1,354 1,355 1,357 1,361 1,365 1,366 1,367 1,369 1,383 1,386 1,388 1,389 1,391 1,392 1,393 1,402 1,404 1,410 1,416 1,424 1,427 1,431 1,432 1,433 1,435 1,437 1,438 1,439 1,442 1,443 1,444 1,445 1,448 1,449 1,453 1,454 1,457 1,459 1,460 1,463 1,466 1,467 1,468 1,469 1,470 1,471 1,472 1,478 1,488 1,490 1,491 1,495 1,497 1,504 1,505 1,512 1,515 1,516 1,518 1,520 1,521 1,525 1,528 1,532 1,534 1,535 1,536 1,537 1,538 1,539 1,541 1,542 1,543 1,545 1,547 1,548 1,549 1,551 1,552 1,553 1,558 1,559 1,561 1,567 1,568 1,569 1,583 1,588 1,591 1,603 1,605 1,610 1,611 1,612 1,619 1,620 1,622 1,625 1,627 1,634 1,638 1,645 1,647 1,649 1,657 1,659 1,660 1,673 1,679 1,682 1,688 1,695 1,698 1,704 1,709 1,714 1,716 1,725 1,739 1,752 1,753 1,755 1,756 1,761 1,763 1,767 1,775 1,779 1,782 1,783 1,784 1,785 1,786 1,788 1,789 1,790 1,792 1,793 1,794 1,795 1,796 1,798 1,799 1,800 1,801 1,802 1,804 1,807 1,814 1,821 1,822 1,823 1,833 1,834 1,835 1,846 1,849 1,852 1,854 1,855 1,857 1,858 1,859 1,865 1,867 1,869 1,870 1,872 1,873 1,875 1,876 1,877 1,879 1,883 1,884 1,886 1,887 1,890 1,893 1,895 1,903 1,904 1,909 1,911 1,913 1}
{4 1,28 1,29 1,51 1,82 1,88 1,152 1,186 1,211 1,307 1,328 1,329 1,361 1,388 1,391 1,402 1,703 1,718 1,740 1,782 1,783 1,790 1,799 1,801 1,807 1,883 1,889 1}
{4 1,26 1,29 1,39 1,43 1,51 1,53 1,55 1,74 1,82 1,88 1,91 1,118 1,120 1,121 1,123 1,129 1,131 1,139 1,154 1,193 1,204 1,209 1,210 1,214 1,217 1,228 1,266 1,277 1,286 1,298 1,309 1,326 1,328 1,332 1,344 1,361 1,369 1,381 1,388 1,389 1,391 1,409 1,413 1,439 1,453 1,457 1,463 1,470 1,491 1,493 1,498 1,499 1,515 1,518 1,521 1,528 1,564 1,578 1,588 1,657 1,668 1,682 1,692 1,706 1,714 1,757 1,763 1,778 1,782 1,783 1,790 1,793 1,796 1,805 1,807 1,812 1,822 1,841 1,858 1,859 1,867 1,875 1,877 1,895 1,904 1,909 1,913 1}
{4 1,9 1,15 1,23 1,29 1,39 1,43 1,51 1,55 1,70 1,80 1,83 1,114 1,115 1,121 1,123 1,130 1,158 1,174 1,175 1,204 1,211 1,225 1,228 1,232 1,260 1,267 1,277 1,286 1,291 1,293 1,300 1,326 1,328 1,329 1,339 1,342 1,345 1,361 1,365 1,369 1,383 1,386 1,388 1,391 1,402 1,433 1,435 1,451 1,453 1,457 1,477 1,478 1,483 1,491 1,497 1,517 1,518 1,522 1,528 1,529 1,536 1,539 1,541 1,548 1,552 1,612 1,690 1,702 1,709 1,716 1,725 1,741 1,752 1,764 1,766 1,767 1,768 1,779 1,782 1,783 1,785 1,788 1,789 1,790 1,793 1,796 1,804 1,807 1,829 1,832 1,835 1,852 1,854 1,858 1,859 1,863 1,865 1,867 1,875 1,883 1,909 1,913 1}
{4 1,39 1,43 1,48 1,51 1,55 1,56 1,76 1,110 1,131 1,149 1,179 1,204 1,222 1,228 1,262 1,277 1,286 1,310 1,332 1,344 1,357 1,361 1,369 1,417 1,428 1,433 1,477 1,488 1,518 1,536 1,538 1,547 1,555 1,572 1,615 1,619 1,625 1,656 1,657 1,751 1,767 1,782 1,788 1,796 1,807 1,820 1,852 1,859 1,860 1,863 1,875 1,897 1,909 1,911 1,913 1}
{4 1,6 1,10 1,19 1,32 1,39 1,46 1,51 1,55 1,74 1,114 1,118 1,123 1,126 1,139 1,152 1,204 1,208 1,210 1,211 1,217 1,228 1,239 1,298 1,300 1,302 1,309 1,321 1,329 1,346 1,354 1,361 1,369 1,381 1,388 1,391 1,396 1,409 1,424 1,469 1,473 1,491 1,493 1,499 1,528 1,531 1,536 1,539 1,552 1,563 1,578 1,627 1,670 1,692 1,695 1,706 1,709 1,716 1,717 1,757 1,763 1,782 1,783 1,784 1,785 1,790 1,798 1,804 1,807 1,812 1,824 1,859 1,861 1,867 1,870 1,872 1,875 1,883 1,909 1}
{4 1,6 1,15 1,29 1,37 1,49 1,55 1,56 1,86 1,114 1,122 1,152 1,207 1,277 1,280 1,328 1,332 1,345 1,361 1,369 1,370 1,377 1,388 1,390 1,396 1,401 1,408 1,411 1,452 1,453 1,464 1,468 1,470 1,500 1,501 1,518 1,528 1,538 1,548 1,555 1,582 1,609 1,616 1,623 1,657 1,660 1,673 1,703 1,719 1,761 1,763 1,768 1,781 1,782 1,783 1,796 1,807 1,811 1,815 1,831 1,834 1,837 1,852 1,854 1,856 1,859 1,863 1,869 1,870 1,883 1}
{4 1,27 1,39 1,51 1,55 1,82 1,88 1,91 1,92 1,114 1,123 1,195 1,198 1,204 1,208 1,210 1,228 1,232 1,277 1,305 1,310 1,321 1,332 1,347 1,361 1,365 1,369 1,388 1,391 1,402 1,409 1,417 1,428 1,469 1,470 1,478 1,491 1,493 1,497 1,510 1,515 1,518 1,520 1,528 1,541 1,567 1,588 1,590 1,624 1,702 1,714 1,752 1,763 1,775 1,783 1,788 1,796 1,807 1,823 1,854 1,883 1,895 1,903 1,907 1,913 1}
{4 1,5 1,19 1,29 1,37 1,38 1,46 1,51 1,55 1,61 1,74 1,82 1,83 1,85 1,88 1,108 1,118 1,123 1,131 1,139 1,143 1,168 1,189 1,201 1,202 1,217 1,222 1,228 1,241 1,249 1,251 1,281 1,292 1,293 1,298 1,300 1,309 1,328 1,329 1,336 1,346 1,357 1,361 1,365 1,367 1,369 1,377 1,381 1,386 1,388 1,391 1,407 1,409 1,433 1,463 1,467 1,468 1,478 1,491 1,493 1,495 1,499 1,504 1,512 1,515 1,517 1,518 1,528 1,538 1,551 1,552 1,554 1,578 1,611 1,659 1,692 1,696 1,706 1,709 1,714 1,748 1,757 1,763 1,782 1,783 1,784 1,788 1,789 1,790 1,796 1,807 1,812 1,823 1,831 1,834 1,846 1,859 1,867 1,874 1,883 1,887 1,895 1,909 1,911 1}
{92 1,98 1,265 1,369 1,388 1,541 1,767 1,796 1}
{4 1,14 1,24 1,32 1,37 1,39 1,43 1,51 1,53 1,54 1,56 1,66 1,76 1,82 1,87 1,88 1,91 1,92 1,93 1,94 1,102 1,106 1,115 1,123 1,127 1,128 1,134 1,136 1,162 1,180 1,195 1,204 1,208 1,210 1,211 1,243 1,244 1,259 1,262 1,277 1,292 1,300 1,303 1,308 1,319 1,321 1,322 1,323 1,324 1,328 1,332 1,339 1,342 1,346 1,350 1,357 1,361 1,363 1,365 1,369 1,371 1,386 1,388 1,389 1,391 1,402 1,417 1,428 1,433 1,434 1,436 1,437 1,441 1,457 1,471 1,491 1,492 1,504 1,515 1,524 1,528 1,536 1,538 1,541 1,548 1,552 1,567 1,575 1,585 1,591 1,601 1,615 1,622 1,625 1,630 1,654 1,657 1,667 1,675 1,680 1,695 1,698 1,702 1,703 1,708 1,709 1,744 1,745 1,763 1,764 1,768 1,779 1,782 1,783 1,785 1,786 1,788 1,789 1,790 1,793 1,796 1,798 1,799 1,804 1,807 1,809 1,814 1,832 1,834 1,844 1,849 1,859 1,863 1,865 1,867 1,873 1,875 1,877 1,879 1,883 1,895 1,902 1,903 1,909 1,913 1}
{4 1,37 1,39 1,45 1,85 1,97 1,114 1,117 1,121 1,123 1,160 1,169 1,207 1,229 1,277 1,329 1,361 1,394 1,470 1,523 1,528 1,536 1,538 1,619 1,633 1,670 1,672 1,682 1,699 1,714 1,783 1,807 1,831 1,904 1}
{4 1,23 1,24 1,39 1,43 1,46 1,51 1,55 1,56 1,61 1,82 1,94 1,97 1,114 1,123 1,166 1,167 1,168 1,169 1,210 1,213 1,225 1,228 1,232 1,233 1,247 1,255 1,259 1,260 1,277 1,302 1,304 1,305 1,312 1,329 1,337 1,339 1,342 1,357 1,361 1,368 1,369 1,386 1,388 1,391 1,417 1,420 1,425 1,433 1,451 1,452 1,456 1,460 1,478 1,488 1,490 1,491 1,495 1,496 1,509 1,518 1,522 1,528 1,536 1,538 1,539 1,541 1,542 1,548 1,559 1,569 1,601 1,604 1,609 1,617 1,618 1,657 1,697 1,709 1,725 1,732 1,752 1,761 1,762 1,763 1,767 1,779 1,782 1,783 1,788 1,790 1,791 1,792 1,796 1,806 1,807 1,812 1,815 1,823 1,825 1,835 1,836 1,840 1,849 1,852 1,867 1,877 1,879 1,890 1,895 1,909 1,912 1}
{4 1,18 1,28 1,37 1,39 1,51 1,82 1,83 1,87 1,111 1,114 1,123 1,168 1,183 1,207 1,210 1,228 1,229 1,246 1,267 1,277 1,303 1,305 1,328 1,329 1,358 1,361 1,369 1,386 1,388 1,391 1,392 1,402 1,409 1,423 1,428 1,439 1,449 1,455 1,475 1,504 1,509 1,518 1,528 1,545 1,558 1,571 1,572 1,615 1,630 1,638 1,640 1,647 1,655 1,657 1,662 1,707 1,714 1,718 1,743 1,747 1,763 1,782 1,783 1,788 1,789 1,793 1,807 1,823 1,849 1,852 1,854 1,869 1,879 1,895 1,907 1,911 1,913 1}
{29 1,33 1,51 1,152 1,222 1,293 1,329 1,339 1,342 1,369 1,388 1,454 1,497 1,515 1,540 1,548 1,714 1,790 1,798 1,807 1,867 1,869 1,905 1,909 1}
{4 1,24 1,41 1,43 1,51 1,55 1,85 1,97 1,149 1,170 1,220 1,228 1,260 1,328 1,329 1,337 1,339 1,342 1,343 1,361 1,365 1,369 1,388 1,460 1,470 1,497 1,528 1,538 1,545 1,591 1,616 1,625 1,657 1,721 1,732 1,746 1,768 1,782 1,783 1,789 1,793 1,796 1,807 1,815 1,825 1,837 1,840 1,849 1,857 1,859 1,867 1,883 1,890 1,912 1}
{44 1,61 1,107 1,123 1,269 1,277 1,308 1,329 1,361 1,369 1,391 1,392 1,425 1,440 1,457 1,476 1,491 1,496 1,497 1,515 1,552 1,675 1,684 1,714 1,782 1,783 1,796 1,807 1,836 1,854 1,875 1,877 1,888 1,896 1,913 1}
{4 1,5 1,6 1,24 1,37 1,39 1,41 1,43 1,58 1,70 1,82 1,114 1,123 1,141 1,152 1,168 1,169 1,205 1,210 1,212 1,228 1,242 1,247 1,277 1,321 1,328 1,329 1,338 1,361 1,365 1,369 1,388 1,391 1,433 1,497 1,512 1,531 1,534 1,536 1,541 1,627 1,630 1,631 1,657 1,666 1,677 1,679 1,693 1,695 1,696 1,709 1,716 1,729 1,752 1,762 1,763 1,764 1,782 1,783 1,786 1,790 1,792 1,796 1,807 1,836 1,840 1,849 1,854 1,859 1,861 1,865 1,870 1,877 1,878 1,879 1,895 1}
{4 1,6 1,61 1,66 1,137 1,182 1,198 1,218 1,239 1,260 1,264 1,304 1,330 1,355 1,361 1,369 1,388 1,391 1,409 1,457 1,469 1,491 1,495 1,528 1,541 1,542 1,553 1,616 1,637 1,687 1,707 1,714 1,763 1,782 1,783 1,788 1,796 1,807 1,812 1,852 1,867 1,870 1,872 1,876 1,903 1}
{4 1,14 1,29 1,31 1,39 1,43 1,56 1,61 1,72 1,75 1,82 1,85 1,87 1,88 1,123 1,186 1,207 1,224 1,271 1,314 1,328 1,345 1,348 1,358 1,361 1,365 1,388 1,417 1,470 1,518 1,525 1,528 1,529 1,536 1,538 1,554 1,588 1,616 1,648 1,782 1,783 1,784 1,812 1,851 1,867 1,869 1,883 1,895 1,907 1,913 1}
{4 1,6 1,16 1,24 1,29 1,32 1,35 1,36 1,37 1,39 1,41 1,43 1,45 1,47 1,51 1,55 1,56 1,61 1,68 1,77 1,82 1,85 1,87 1,103 1,115 1,116 1,121 1,123 1,130 1,132 1,134 1,140 1,152 1,156 1,157 1,181 1,182 1,195 1,201 1,202 1,204 1,209 1,220 1,222 1,223 1,226 1,227 1,228 1,229 1,248 1,270 1,271 1,277 1,280 1,286 1,302 1,327 1,328 1,329 1,331 1,334 1,339 1,354 1,358 1,361 1,365 1,369 1,370 1,376 1,377 1,388 1,391 1,392 1,409 1,412 1,422 1,427 1,434 1,438 1,440 1,441 1,449 1,455 1,470 1,473 1,489 1,491 1,493 1,503 1,507 1,509 1,515 1,517 1,518 1,528 1,532 1,536 1,538 1,539 1,541 1,552 1,567 1,587 1,594 1,603 1,626 1,630 1,633 1,657 1,660 1,679 1,687 1,695 1,707 1,713 1,714 1,715 1,729 1,741 1,749 1,765 1,775 1,778 1,782 1,783 1,784 1,788 1,790 1,796 1,799 1,804 1,807 1,818 1,821 1,823 1,828 1,831 1,841 1,843 1,852 1,854 1,865 1,866 1,869 1,872 1,873 1,874 1,875 1,883 1,885 1,886 1,903 1,905 1,908 1,909 1,911 1}
{4 1,5 1,6 1,7 1,18 1,31 1,32 1,37 1,39 1,54 1,55 1,56 1,61 1,67 1,73 1,82 1,98 1,114 1,123 1,128 1,182 1,189 1,195 1,204 1,222 1,225 1,228 1,254 1,277 1,286 1,289 1,306 1,320 1,339 1,357 1,361 1,365 1,369 1,377 1,383 1,385 1,388 1,412 1,441 1,444 1,458 1,504 1,517 1,518 1,528 1,536 1,538 1,541 1,543 1,555 1,581 1,590 1,607 1,657 1,695 1,717 1,733 1,753 1,782 1,783 1,804 1,807 1,825 1,831 1,844 1,845 1,867 1,870 1,879 1,883 1,909 1}
{4 1,5 1,14 1,39 1,43 1,45 1,73 1,76 1,82 1,114 1,123 1,153 1,241 1,251 1,277 1,332 1,361 1,369 1,388 1,391 1,399 1,419 1,463 1,469 1,491 1,495 1,518 1,551 1,553 1,561 1,585 1,600 1,709 1,721 1,763 1,781 1,782 1,783 1,796 1,800 1,807 1,810 1,834 1,835 1,854 1,859 1,883 1,911 1,913 1}
{4 1,26 1,29 1,32 1,39 1,43 1,51 1,53 1,55 1,74 1,82 1,87 1,88 1,91 1,106 1,115 1,120 1,121 1,123 1,129 1,131 1,136 1,154 1,165 1,168 1,171 1,193 1,204 1,209 1,210 1,214 1,228 1,266 1,277 1,286 1,298 1,299 1,300 1,309 1,326 1,328 1,329 1,332 1,344 1,361 1,362 1,369 1,388 1,389 1,391 1,409 1,413 1,416 1,439 1,453 1,457 1,463 1,470 1,491 1,493 1,498 1,509 1,515 1,518 1,521 1,523 1,528 1,564 1,578 1,588 1,627 1,644 1,657 1,660 1,667 1,668 1,682 1,714 1,741 1,763 1,777 1,778 1,782 1,783 1,790 1,793 1,796 1,798 1,805 1,807 1,822 1,841 1,842 1,846 1,858 1,859 1,867 1,875 1,877 1,895 1,904 1,908 1,909 1}
{39 1,145 1,150 1,158 1,212 1,228 1,234 1,238 1,277 1,300 1,308 1,356 1,361 1,369 1,370 1,391 1,433 1,453 1,505 1,518 1,541 1,573 1,657 1,725 1,783 1,784 1,807 1,822 1,867 1,909 1}
{39 1,51 1,55 1,91 1,114 1,228 1,261 1,365 1,369 1,388 1,447 1,495 1,510 1,528 1,536 1,538 1,618 1,625 1,650 1,657 1,677 1,745 1,783 1,793 1,807 1,812 1,813 1,823 1,854 1,909 1,913 1}
{6 1,13 1,36 1,43 1,55 1,82 1,115 1,121 1,131 1,152 1,195 1,204 1,228 1,242 1,243 1,275 1,276 1,277 1,311 1,329 1,361 1,369 1,388 1,391 1,404 1,409 1,433 1,458 1,464 1,468 1,482 1,500 1,515 1,518 1,554 1,567 1,650 1,667 1,716 1,752 1,763 1,782 1,783 1,784 1,788 1,793 1,796 1,799 1,807 1,854 1,859 1,867 1,872 1,883 1,895 1,909 1,911 1}
{4 1,9 1,14 1,24 1,26 1,29 1,31 1,32 1,38 1,39 1,51 1,54 1,55 1,70 1,82 1,86 1,88 1,92 1,94 1,112 1,114 1,115 1,123 1,152 1,166 1,168 1,177 1,178 1,200 1,204 1,209 1,213 1,225 1,228 1,235 1,239 1,243 1,247 1,277 1,286 1,300 1,321 1,328 1,335 1,339 1,357 1,361 1,365 1,369 1,388 1,391 1,394 1,407 1,409 1,426 1,428 1,433 1,447 1,453 1,468 1,475 1,491 1,493 1,495 1,505 1,508 1,518 1,525 1,528 1,536 1,537 1,538 1,542 1,552 1,562 1,582 1,602 1,616 1,657 1,659 1,669 1,672 1,681 1,683 1,695 1,703 1,712 1,714 1,715 1,716 1,725 1,746 1,751 1,752 1,754 1,755 1,758 1,761 1,763 1,782 1,783 1,789 1,790 1,792 1,793 1,796 1,797 1,807 1,813 1,824 1,829 1,834 1,854 1,867 1,869 1,877 1,883 1,895 1,904 1,909 1}
{4 1,17 1,24 1,26 1,32 1,39 1,55 1,56 1,61 1,70 1,83 1,94 1,106 1,114 1,152 1,206 1,233 1,261 1,271 1,274 1,286 1,294 1,295 1,328 1,361 1,369 1,391 1,407 1,417 1,418 1,423 1,453 1,460 1,507 1,528 1,535 1,536 1,538 1,541 1,552 1,553 1,572 1,638 1,686 1,691 1,703 1,708 1,782 1,783 1,784 1,785 1,790 1,793 1,796 1,804 1,807 1,812 1,823 1,834 1,854 1,865 1,876 1,883 1,887 1,893 1,902 1,903 1,913 1}
{4 1,6 1,24 1,32 1,37 1,39 1,43 1,46 1,55 1,56 1,58 1,61 1,82 1,128 1,168 1,204 1,211 1,270 1,277 1,307 1,321 1,328 1,329 1,332 1,361 1,365 1,369 1,388 1,409 1,428 1,442 1,468 1,470 1,478 1,495 1,497 1,518 1,520 1,528 1,536 1,538 1,541 1,548 1,552 1,587 1,591 1,626 1,633 1,657 1,666 1,693 1,703 1,752 1,779 1,782 1,783 1,796 1,807 1,834 1,852 1,867 1,872 1,883 1,890 1,895 1,909 1}
{14 1,114 1,158 1,208 1,277 1,369 1,391 1,435 1,442 1,483 1,490 1,521 1,528 1,660 1,746 1,763 1,783 1,790 1,796 1,807 1,810 1,854 1,865 1,869 1}
{4 1,6 1,16 1,17 1,24 1,26 1,29 1,30 1,32 1,39 1,43 1,56 1,61 1,70 1,82 1,83 1,86 1,88 1,94 1,114 1,115 1,123 1,166 1,169 1,179 1,182 1,183 1,195 1,196 1,206 1,208 1,220 1,223 1,233 1,235 1,245 1,261 1,264 1,271 1,272 1,277 1,280 1,281 1,286 1,294 1,295 1,306 1,307 1,308 1,319 1,321 1,328 1,329 1,345 1,349 1,356 1,357 1,361 1,369 1,386 1,388 1,391 1,402 1,411 1,412 1,417 1,422 1,423 1,425 1,454 1,460 1,468 1,470 1,476 1,491 1,497 1,498 1,507 1,508 1,518 1,521 1,528 1,529 1,534 1,535 1,536 1,538 1,541 1,548 1,552 1,553 1,571 1,572 1,575 1,576 1,580 1,583 1,600 1,601 1,603 1,630 1,634 1,636 1,638 1,642 1,643 1,661 1,675 1,676 1,679 1,694 1,709 1,714 1,734 1,737 1,746 1,763 1,764 1,770 1,775 1,782 1,783 1,784 1,785 1,790 1,791 1,793 1,796 1,799 1,802 1,804 1,807 1,814 1,816 1,823 1,833 1,834 1,837 1,851 1,854 1,858 1,863 1,864 1,865 1,867 1,869 1,872 1,873 1,876 1,880 1,883 1,887 1,894 1,895 1,902 1,903 1,909 1,913 1}
{4 1,6 1,11 1,18 1,39 1,43 1,70 1,82 1,92 1,104 1,114 1,115 1,123 1,165 1,177 1,207 1,222 1,243 1,270 1,271 1,277 1,310 1,328 1,329 1,335 1,352 1,357 1,361 1,363 1,365 1,369 1,388 1,391 1,392 1,402 1,409 1,441 1,470 1,516 1,528 1,536 1,541 1,545 1,613 1,632 1,644 1,657 1,681 1,691 1,703 1,748 1,749 1,781 1,782 1,783 1,785 1,788 1,796 1,807 1,812 1,858 1,870 1,871 1,890 1,892 1,895 1,904 1}
{4 1,11 1,37 1,39 1,55 1,65 1,114 1,123 1,135 1,160 1,166 1,177 1,184 1,230 1,245 1,277 1,292 1,293 1,343 1,361 1,369 1,382 1,386 1,388 1,391 1,407 1,420 1,427 1,468 1,491 1,509 1,528 1,536 1,537 1,541 1,552 1,594 1,627 1,657 1,660 1,704 1,772 1,782 1,783 1,786 1,789 1,793 1,796 1,798 1,799 1,800 1,805 1,854 1,862 1,865 1,867 1,872 1}
{4 1,6 1,32 1,37 1,39 1,55 1,67 1,70 1,71 1,81 1,85 1,86 1,95 1,102 1,107 1,114 1,122 1,168 1,182 1,196 1,210 1,228 1,277 1,279 1,280 1,284 1,300 1,303 1,310 1,329 1,331 1,332 1,339 1,345 1,361 1,365 1,369 1,383 1,388 1,391 1,392 1,402 1,404 1,409 1,433 1,437 1,439 1,442 1,460 1,470 1,476 1,508 1,509 1,512 1,518 1,521 1,528 1,529 1,536 1,537 1,539 1,552 1,567 1,572 1,628 1,638 1,657 1,659 1,669 1,676 1,680 1,695 1,709 1,714 1,716 1,734 1,763 1,767 1,769 1,782 1,783 1,785 1,788 1,790 1,794 1,796 1,800 1,804 1,807 1,834 1,837 1,854 1,863 1,865 1,869 1,873 1,903 1,909 1,911 1,913 1}
{4 1,6 1,11 1,14 1,15 1,18 1,19 1,24 1,26 1,29 1,31 1,32 1,37 1,39 1,42 1,43 1,44 1,51 1,55 1,56 1,61 1,68 1,82 1,83 1,85 1,86 1,87 1,103 1,104 1,114 1,115 1,123 1,125 1,128 1,130 1,152 1,170 1,177 1,201 1,204 1,208 1,210 1,214 1,215 1,221 1,222 1,229 1,239 1,241 1,242 1,248 1,250 1,259 1,264 1,267 1,269 1,271 1,277 1,280 1,286 1,289 1,293 1,300 1,301 1,304 1,305 1,307 1,308 1,321 1,326 1,327 1,328 1,329 1,330 1,332 1,345 1,352 1,353 1,358 1,361 1,365 1,369 1,386 1,388 1,389 1,391 1,402 1,409 1,417 1,433 1,435 1,437 1,439 1,441 1,449 1,453 1,456 1,458 1,470 1,474 1,484 1,491 1,493 1,497 1,503 1,507 1,508 1,509 1,515 1,516 1,518 1,521 1,528 1,529 1,533 1,536 1,537 1,538 1,539 1,541 1,548 1,552 1,553 1,554 1,561 1,564 1,567 1,569 1,570 1,603 1,604 1,613 1,616 1,630 1,631 1,634 1,640 1,645 1,647 1,649 1,652 1,657 1,658 1,659 1,667 1,684 1,695 1,700 1,709 1,714 1,721 1,727 1,740 1,745 1,746 1,748 1,752 1,755 1,759 1,763 1,764 1,765 1,778 1,782 1,783 1,784 1,788 1,789 1,790 1,791 1,793 1,796 1,798 1,807 1,812 1,818 1,821 1,823 1,832 1,846 1,854 1,858 1,860 1,861 1,865 1,869 1,870 1,871 1,875 1,879 1,884 1,885 1,889 1,895 1,899 1,902 1,904 1,905 1,909 1,911 1}
{4 1,9 1,24 1,55 1,60 1,92 1,152 1,189 1,200 1,210 1,307 1,329 1,336 1,357 1,369 1,385 1,404 1,407 1,453 1,455 1,488 1,506 1,518 1,521 1,525 1,528 1,562 1,616 1,672 1,695 1,703 1,754 1,763 1,783 1,785 1,789 1,807 1,831 1,842 1,859 1,877 1,883 1}
{4 1,5 1,14 1,15 1,37 1,39 1,43 1,51 1,61 1,82 1,85 1,86 1,91 1,101 1,114 1,120 1,123 1,169 1,173 1,180 1,182 1,204 1,213 1,224 1,227 1,228 1,262 1,269 1,277 1,286 1,294 1,295 1,300 1,302 1,305 1,313 1,329 1,361 1,365 1,369 1,386 1,388 1,389 1,391 1,396 1,404 1,433 1,437 1,438 1,439 1,453 1,470 1,509 1,518 1,525 1,528 1,536 1,541 1,552 1,572 1,586 1,649 1,656 1,657 1,679 1,695 1,703 1,714 1,735 1,739 1,763 1,764 1,766 1,782 1,783 1,788 1,790 1,792 1,800 1,802 1,804 1,807 1,823 1,833 1,834 1,846 1,858 1,861 1,863 1,867 1,870 1,877 1,879 1,888 1,895 1,903 1,913 1}
{4 1,6 1,9 1,37 1,39 1,43 1,46 1,47 1,65 1,85 1,121 1,148 1,201 1,245 1,257 1,258 1,285 1,287 1,328 1,353 1,365 1,369 1,377 1,385 1,388 1,391 1,455 1,470 1,535 1,541 1,587 1,588 1,612 1,647 1,657 1,693 1,716 1,782 1,783 1,796 1,807 1,883 1,895 1}
{4 1,9 1,17 1,32 1,37 1,39 1,51 1,55 1,56 1,86 1,110 1,112 1,114 1,115 1,123 1,128 1,143 1,152 1,160 1,168 1,189 1,200 1,204 1,228 1,236 1,238 1,240 1,277 1,313 1,357 1,361 1,369 1,388 1,402 1,417 1,425 1,453 1,465 1,490 1,493 1,497 1,506 1,528 1,535 1,536 1,551 1,552 1,555 1,657 1,679 1,725 1,763 1,772 1,774 1,783 1,789 1,790 1,807 1,825 1,834 1,859 1,864 1,869 1,883 1,909 1}
{4 1,24 1,39 1,54 1,61 1,93 1,114 1,123 1,175 1,208 1,222 1,277 1,300 1,305 1,318 1,329 1,332 1,339 1,345 1,361 1,365 1,369 1,388 1,391 1,433 1,453 1,455 1,471 1,482 1,497 1,509 1,515 1,536 1,541 1,567 1,574 1,575 1,629 1,657 1,755 1,763 1,782 1,783 1,786 1,790 1,796 1,804 1,807 1,812 1,857 1,863 1,867 1,869 1,883 1,895 1,908 1,909 1,913 1}
{4 1,6 1,14 1,30 1,39 1,51 1,53 1,56 1,57 1,82 1,84 1,85 1,103 1,114 1,115 1,152 1,181 1,204 1,205 1,228 1,248 1,277 1,329 1,331 1,332 1,345 1,361 1,365 1,388 1,391 1,409 1,424 1,440 1,463 1,468 1,473 1,491 1,496 1,509 1,518 1,521 1,528 1,541 1,560 1,618 1,630 1,647 1,714 1,746 1,754 1,763 1,778 1,782 1,783 1,788 1,789 1,790 1,796 1,804 1,807 1,824 1,859 1,863 1,867 1,870 1,872 1,909 1,911 1}
{4 1,23 1,39 1,55 1,80 1,82 1,86 1,158 1,166 1,168 1,183 1,228 1,230 1,239 1,271 1,273 1,286 1,300 1,302 1,326 1,339 1,361 1,365 1,369 1,386 1,388 1,391 1,415 1,457 1,497 1,522 1,528 1,536 1,709 1,725 1,782 1,783 1,785 1,786 1,807 1,851 1,858 1,865 1,870 1,878 1,893 1,895 1,909 1,911 1}
{4 1,6 1,24 1,37 1,39 1,51 1,55 1,114 1,115 1,116 1,117 1,123 1,204 1,207 1,208 1,228 1,245 1,260 1,277 1,329 1,345 1,361 1,368 1,369 1,374 1,399 1,437 1,453 1,491 1,493 1,510 1,528 1,530 1,584 1,590 1,624 1,656 1,657 1,669 1,709 1,719 1,737 1,763 1,767 1,769 1,773 1,782 1,783 1,807 1,823 1,825 1,835 1,849 1,852 1,867 1,877 1,880 1,882 1,883 1,906 1,909 1,913 1}
{4 1,20 1,37 1,43 1,285 1,286 1,365 1,388 1,409 1,483 1,528 1,783 1,788 1,807 1}
{4 1,6 1,8 1,11 1,39 1,51 1,85 1,114 1,115 1,153 1,184 1,234 1,263 1,329 1,361 1,388 1,391 1,393 1,413 1,431 1,450 1,455 1,463 1,470 1,478 1,506 1,528 1,536 1,587 1,595 1,719 1,767 1,782 1,783 1,790 1,796 1,807 1,827 1,846 1,867 1,895 1,900 1}
{4 1,7 1,32 1,37 1,39 1,43 1,61 1,82 1,89 1,107 1,114 1,117 1,123 1,150 1,151 1,171 1,173 1,213 1,228 1,235 1,240 1,261 1,277 1,286 1,303 1,325 1,329 1,332 1,336 1,361 1,365 1,369 1,388 1,423 1,431 1,439 1,456 1,459 1,462 1,468 1,469 1,470 1,497 1,512 1,515 1,518 1,528 1,529 1,536 1,538 1,630 1,635 1,654 1,657 1,686 1,709 1,724 1,725 1,746 1,773 1,781 1,783 1,790 1,796 1,807 1,814 1,825 1,833 1,834 1,867 1,879 1,883 1,909 1,911 1,913 1}
{4 1,37 1,39 1,80 1,82 1,93 1,123 1,243 1,277 1,286 1,300 1,328 1,361 1,391 1,453 1,472 1,477 1,515 1,518 1,528 1,573 1,608 1,620 1,630 1,631 1,642 1,657 1,752 1,755 1,783 1,788 1,807 1,825 1,831 1,869 1,890 1,911 1}
{4 1,39 1,85 1,92 1,114 1,166 1,168 1,261 1,329 1,345 1,361 1,369 1,394 1,482 1,497 1,515 1,528 1,568 1,585 1,657 1,680 1,713 1,741 1,763 1,779 1,782 1,783 1,786 1,788 1,807 1,854 1,856 1,909 1}
{4 1,24 1,39 1,51 1,56 1,61 1,62 1,82 1,91 1,109 1,115 1,203 1,210 1,223 1,224 1,271 1,295 1,305 1,329 1,347 1,356 1,357 1,361 1,369 1,388 1,391 1,402 1,409 1,433 1,439 1,442 1,468 1,497 1,505 1,518 1,528 1,529 1,536 1,552 1,567 1,571 1,572 1,583 1,627 1,630 1,634 1,636 1,657 1,679 1,709 1,763 1,770 1,782 1,783 1,789 1,801 1,807 1,854 1,858 1,859 1,866 1,877 1,883 1,911 1,913 1}
{4 1,43 1,45 1,51 1,56 1,85 1,91 1,124 1,207 1,277 1,328 1,329 1,336 1,369 1,388 1,478 1,483 1,528 1,580 1,633 1,736 1,758 1,781 1,783 1,804 1,818 1,859 1,883 1,909 1,911 1}
{4 1,6 1,11 1,16 1,24 1,33 1,39 1,55 1,56 1,61 1,82 1,91 1,92 1,96 1,102 1,111 1,115 1,123 1,134 1,138 1,149 1,152 1,168 1,177 1,179 1,191 1,204 1,233 1,243 1,249 1,259 1,267 1,275 1,277 1,285 1,286 1,289 1,300 1,304 1,329 1,355 1,357 1,361 1,365 1,369 1,388 1,389 1,391 1,402 1,405 1,408 1,416 1,417 1,420 1,433 1,439 1,449 1,452 1,453 1,470 1,478 1,490 1,491 1,495 1,497 1,501 1,513 1,518 1,528 1,529 1,536 1,539 1,541 1,542 1,547 1,552 1,568 1,615 1,618 1,623 1,657 1,659 1,667 1,690 1,691 1,703 1,714 1,720 1,721 1,752 1,755 1,761 1,763 1,779 1,782 1,783 1,790 1,793 1,807 1,834 1,859 1,875 1,877 1,883 1,895 1,903 1,909 1}
{4 1,43 1,51 1,61 1,88 1,295 1,321 1,328 1,329 1,342 1,361 1,425 1,449 1,514 1,528 1,538 1,631 1,770 1,782 1,783 1,796 1,903 1,913 1}
{4 1,5 1,6 1,9 1,18 1,32 1,39 1,43 1,57 1,70 1,85 1,91 1,92 1,117 1,134 1,156 1,204 1,205 1,213 1,229 1,266 1,305 1,326 1,329 1,335 1,339 1,352 1,353 1,358 1,361 1,365 1,386 1,388 1,391 1,399 1,426 1,441 1,497 1,515 1,518 1,520 1,528 1,535 1,538 1,541 1,612 1,616 1,647 1,657 1,714 1,746 1,755 1,768 1,776 1,782 1,783 1,785 1,788 1,790 1,791 1,796 1,807 1,810 1,834 1,839 1,854 1,861 1,869 1,883 1,890 1,895 1,904 1}
{0 1,1 1,4 1,37 1,39 1,61 1,82 1,115 1,123 1,168 1,185 1,265 1,280 1,339 1,369 1,377 1,385 1,433 1,509 1,525 1,526 1,527 1,541 1,542 1,581 1,607 1,657 1,659 1,695 1,715 1,763 1,781 1,782 1,783 1,789 1,796 1,854 1,856 1}
{4 1,6 1,11 1,19 1,22 1,24 1,30 1,37 1,39 1,45 1,51 1,55 1,56 1,61 1,62 1,72 1,75 1,76 1,78 1,82 1,88 1,91 1,106 1,109 1,110 1,114 1,115 1,148 1,162 1,168 1,196 1,203 1,204 1,207 1,210 1,213 1,226 1,228 1,243 1,244 1,264 1,271 1,277 1,281 1,286 1,294 1,295 1,297 1,300 1,305 1,308 1,318 1,328 1,329 1,332 1,344 1,345 1,347 1,349 1,357 1,361 1,369 1,377 1,379 1,388 1,391 1,398 1,411 1,417 1,419 1,423 1,426 1,444 1,448 1,449 1,457 1,462 1,464 1,469 1,491 1,493 1,495 1,502 1,505 1,508 1,515 1,518 1,528 1,529 1,530 1,536 1,538 1,541 1,552 1,553 1,577 1,580 1,583 1,597 1,600 1,619 1,647 1,657 1,667 1,676 1,677 1,679 1,703 1,709 1,718 1,734 1,735 1,739 1,763 1,769 1,779 1,782 1,783 1,790 1,791 1,793 1,795 1,796 1,798 1,799 1,800 1,807 1,812 1,823 1,829 1,831 1,834 1,836 1,849 1,854 1,865 1,867 1,869 1,875 1,877 1,879 1,880 1,883 1,887 1,895 1,903 1,906 1,909 1,911 1,913 1}
{4 1,20 1,37 1,43 1,57 1,93 1,97 1,128 1,152 1,237 1,285 1,286 1,300 1,332 1,365 1,369 1,388 1,391 1,403 1,409 1,432 1,463 1,483 1,487 1,505 1,515 1,528 1,539 1,541 1,559 1,657 1,737 1,753 1,761 1,782 1,783 1,785 1,788 1,799 1,802 1,807 1,829 1,836 1,858 1,859 1,870 1,871 1}
{4 1,17 1,39 1,56 1,114 1,120 1,170 1,176 1,213 1,228 1,239 1,273 1,361 1,362 1,369 1,391 1,493 1,528 1,562 1,725 1,783 1,784 1,798 1,807 1,811 1,854 1,895 1,902 1,910 1}
{4 1,37 1,39 1,49 1,55 1,76 1,102 1,106 1,140 1,151 1,174 1,228 1,245 1,277 1,286 1,329 1,369 1,399 1,433 1,463 1,528 1,538 1,552 1,555 1,625 1,769 1,783 1,790 1,798 1,812 1,875 1,879 1,885 1,909 1,913 1}
{4 1,6 1,14 1,29 1,37 1,39 1,43 1,85 1,86 1,97 1,114 1,123 1,177 1,195 1,204 1,205 1,213 1,214 1,274 1,328 1,329 1,330 1,332 1,345 1,361 1,365 1,369 1,402 1,417 1,432 1,437 1,442 1,443 1,453 1,468 1,470 1,475 1,489 1,491 1,495 1,497 1,518 1,521 1,528 1,538 1,541 1,552 1,555 1,630 1,657 1,659 1,660 1,679 1,684 1,702 1,703 1,715 1,758 1,763 1,775 1,778 1,779 1,783 1,786 1,796 1,799 1,807 1,823 1,834 1,837 1,846 1,854 1,860 1,862 1,864 1,871 1,883 1,909 1}
{4 1,9 1,39 1,49 1,56 1,61 1,82 1,85 1,113 1,114 1,115 1,156 1,158 1,168 1,178 1,191 1,194 1,199 1,207 1,225 1,235 1,271 1,277 1,281 1,286 1,288 1,299 1,303 1,304 1,321 1,328 1,329 1,342 1,369 1,374 1,391 1,392 1,421 1,451 1,454 1,457 1,509 1,515 1,518 1,521 1,528 1,536 1,545 1,552 1,553 1,561 1,598 1,621 1,639 1,655 1,657 1,663 1,664 1,689 1,691 1,714 1,725 1,726 1,752 1,772 1,777 1,781 1,783 1,784 1,786 1,790 1,796 1,798 1,802 1,804 1,807 1,809 1,823 1,836 1,839 1,845 1,849 1,850 1,854 1,858 1,863 1,869 1,872 1,879 1,883 1,893 1,895 1,904 1,907 1}
{4 1,5 1,6 1,39 1,43 1,44 1,45 1,48 1,52 1,56 1,61 1,71 1,82 1,92 1,114 1,132 1,149 1,171 1,196 1,204 1,207 1,208 1,210 1,228 1,266 1,277 1,300 1,306 1,308 1,332 1,344 1,361 1,365 1,369 1,388 1,409 1,417 1,433 1,439 1,457 1,479 1,493 1,512 1,521 1,528 1,536 1,548 1,550 1,553 1,575 1,579 1,584 1,586 1,588 1,600 1,657 1,668 1,684 1,695 1,728 1,746 1,762 1,763 1,779 1,782 1,783 1,790 1,796 1,807 1,811 1,812 1,823 1,832 1,834 1,852 1,854 1,865 1,867 1,877 1,883 1,895 1,903 1,904 1,913 1}
{4 1,35 1,39 1,43 1,45 1,52 1,55 1,91 1,123 1,157 1,201 1,270 1,277 1,303 1,361 1,365 1,369 1,377 1,388 1,391 1,392 1,442 1,470 1,491 1,506 1,528 1,611 1,630 1,642 1,657 1,763 1,783 1,807 1,849 1,875 1,883 1,886 1,895 1,909 1,911 1}
{4 1,6 1,17 1,23 1,39 1,44 1,51 1,55 1,61 1,82 1,96 1,114 1,115 1,152 1,166 1,168 1,177 1,193 1,199 1,204 1,209 1,216 1,228 1,235 1,239 1,267 1,271 1,277 1,294 1,305 1,312 1,329 1,332 1,342 1,345 1,353 1,361 1,365 1,369 1,391 1,402 1,407 1,416 1,425 1,437 1,453 1,457 1,463 1,469 1,477 1,478 1,490 1,506 1,515 1,518 1,522 1,528 1,533 1,536 1,540 1,549 1,550 1,553 1,570 1,627 1,646 1,679 1,712 1,714 1,716 1,725 1,749 1,754 1,767 1,782 1,783 1,786 1,788 1,798 1,803 1,807 1,812 1,820 1,821 1,832 1,858 1,859 1,865 1,867 1,869 1,873 1,875 1,877 1,883 1,895 1,909 1}
{4 1,24 1,61 1,114 1,135 1,146 1,177 1,294 1,295 1,307 1,329 1,352 1,361 1,369 1,388 1,470 1,505 1,518 1,538 1,577 1,583 1,623 1,735 1,746 1,769 1,779 1,783 1,807 1,854 1,875 1,909 1,913 1}
{4 1,24 1,39 1,42 1,43 1,45 1,56 1,82 1,84 1,148 1,166 1,168 1,174 1,180 1,207 1,270 1,277 1,291 1,329 1,357 1,361 1,365 1,366 1,369 1,387 1,388 1,392 1,407 1,433 1,495 1,528 1,541 1,609 1,617 1,667 1,704 1,709 1,730 1,750 1,781 1,782 1,783 1,789 1,796 1,807 1,837 1,849 1,859 1,867 1,870 1,879 1,895 1}
{4 1,9 1,37 1,39 1,43 1,51 1,55 1,61 1,82 1,93 1,116 1,123 1,152 1,168 1,175 1,192 1,200 1,210 1,213 1,216 1,224 1,277 1,308 1,317 1,321 1,331 1,353 1,357 1,361 1,365 1,369 1,391 1,402 1,409 1,437 1,453 1,471 1,482 1,495 1,505 1,506 1,515 1,518 1,528 1,536 1,540 1,541 1,544 1,549 1,550 1,562 1,615 1,630 1,643 1,697 1,714 1,754 1,763 1,764 1,782 1,783 1,784 1,786 1,790 1,798 1,800 1,803 1,807 1,822 1,823 1,828 1,832 1,834 1,849 1,854 1,859 1,865 1,869 1,872 1,883 1,895 1,909 1}
{4 1,5 1,11 1,39 1,43 1,45 1,55 1,76 1,82 1,83 1,123 1,153 1,182 1,228 1,251 1,277 1,285 1,295 1,329 1,345 1,361 1,369 1,391 1,399 1,402 1,418 1,469 1,491 1,493 1,495 1,528 1,541 1,548 1,551 1,553 1,561 1,583 1,585 1,600 1,631 1,676 1,686 1,714 1,721 1,763 1,768 1,781 1,782 1,783 1,796 1,800 1,807 1,822 1,834 1,835 1,854 1,859 1,865 1,883 1,888 1,895 1,911 1,913 1}
{4 1,6 1,39 1,41 1,43 1,51 1,56 1,82 1,85 1,97 1,108 1,114 1,115 1,123 1,168 1,204 1,211 1,245 1,257 1,267 1,285 1,328 1,329 1,333 1,335 1,353 1,361 1,365 1,369 1,402 1,432 1,482 1,528 1,536 1,538 1,541 1,570 1,633 1,640 1,642 1,682 1,683 1,695 1,702 1,723 1,742 1,782 1,783 1,784 1,785 1,789 1,790 1,792 1,793 1,807 1,819 1,829 1,837 1,839 1,846 1,867 1,875 1,883 1,885 1,890 1,895 1}
{4 1,6 1,11 1,29 1,39 1,43 1,45 1,51 1,55 1,61 1,65 1,82 1,112 1,114 1,146 1,152 1,166 1,168 1,190 1,191 1,207 1,210 1,213 1,228 1,242 1,251 1,277 1,286 1,301 1,306 1,308 1,313 1,317 1,328 1,330 1,335 1,357 1,361 1,365 1,369 1,386 1,388 1,391 1,394 1,402 1,409 1,417 1,420 1,443 1,453 1,468 1,495 1,496 1,505 1,509 1,515 1,518 1,520 1,528 1,536 1,600 1,601 1,604 1,606 1,627 1,633 1,645 1,649 1,657 1,677 1,681 1,682 1,703 1,709 1,715 1,736 1,741 1,752 1,754 1,755 1,762 1,763 1,765 1,779 1,782 1,783 1,784 1,786 1,788 1,789 1,790 1,791 1,796 1,797 1,798 1,806 1,807 1,828 1,832 1,834 1,835 1,837 1,849 1,854 1,858 1,867 1,872 1,879 1,883 1,887 1,891 1,894 1,895 1,903 1,909 1}
{4 1,6 1,15 1,29 1,31 1,36 1,37 1,39 1,43 1,47 1,51 1,55 1,56 1,66 1,67 1,70 1,71 1,72 1,76 1,81 1,82 1,88 1,106 1,108 1,110 1,112 1,114 1,115 1,122 1,123 1,148 1,168 1,176 1,177 1,204 1,208 1,228 1,229 1,232 1,277 1,286 1,296 1,307 1,308 1,328 1,329 1,331 1,332 1,333 1,335 1,344 1,345 1,347 1,361 1,365 1,369 1,388 1,391 1,402 1,416 1,417 1,433 1,439 1,448 1,449 1,453 1,457 1,464 1,491 1,495 1,497 1,507 1,508 1,518 1,519 1,528 1,541 1,552 1,553 1,588 1,604 1,625 1,639 1,644 1,649 1,657 1,660 1,667 1,677 1,700 1,709 1,714 1,716 1,717 1,720 1,722 1,731 1,739 1,746 1,763 1,782 1,783 1,786 1,790 1,796 1,801 1,807 1,812 1,813 1,829 1,834 1,854 1,858 1,862 1,865 1,867 1,869 1,883 1,885 1,890 1,895 1,899 1,904 1,909 1,911 1,913 1}
{4 1,5 1,39 1,56 1,58 1,93 1,205 1,210 1,231 1,260 1,329 1,332 1,361 1,369 1,388 1,391 1,409 1,453 1,470 1,495 1,497 1,518 1,617 1,638 1,659 1,699 1,763 1,782 1,783 1,798 1,807 1,810 1,823 1,867 1}
{24 1,85 1,86 1,182 1,228 1,245 1,270 1,321 1,329 1,339 1,357 1,361 1,388 1,433 1,528 1,539 1,552 1,679 1,681 1,750 1,783 1,859 1,909 1}
{12 1,123 1,369 1,521 1,538 1,724 1,745 1,761 1,783 1,804 1,807 1,874 1,909 1,913 1}
{4 1,6 1,18 1,43 1,56 1,82 1,114 1,115 1,124 1,147 1,189 1,196 1,214 1,220 1,286 1,328 1,329 1,332 1,345 1,358 1,361 1,369 1,377 1,388 1,473 1,474 1,509 1,515 1,528 1,536 1,540 1,541 1,627 1,633 1,642 1,657 1,669 1,680 1,686 1,707 1,709 1,742 1,763 1,782 1,783 1,784 1,790 1,807 1,818 1,823 1,830 1,846 1,861 1,867 1,872 1,883 1,890 1,895 1,896 1}
{14 1,33 1,39 1,42 1,51 1,55 1,57 1,82 1,106 1,114 1,177 1,183 1,204 1,228 1,230 1,235 1,243 1,271 1,272 1,273 1,286 1,300 1,304 1,361 1,365 1,369 1,415 1,433 1,471 1,488 1,497 1,528 1,536 1,541 1,568 1,617 1,668 1,746 1,782 1,783 1,784 1,790 1,793 1,799 1,800 1,807 1,835 1,844 1,849 1,851 1,854 1,865 1,867 1,870 1,871 1,878 1,883 1,895 1,904 1,906 1,909 1,911 1}
{4 1,6 1,39 1,55 1,67 1,70 1,71 1,81 1,86 1,102 1,107 1,114 1,122 1,168 1,182 1,196 1,210 1,277 1,279 1,280 1,300 1,303 1,310 1,329 1,331 1,332 1,339 1,345 1,361 1,365 1,369 1,383 1,388 1,391 1,392 1,402 1,404 1,409 1,433 1,437 1,439 1,442 1,460 1,470 1,476 1,508 1,512 1,518 1,521 1,528 1,529 1,536 1,537 1,539 1,552 1,567 1,572 1,628 1,638 1,657 1,659 1,669 1,676 1,680 1,695 1,709 1,714 1,716 1,734 1,763 1,767 1,769 1,782 1,783 1,785 1,788 1,790 1,794 1,796 1,800 1,804 1,807 1,834 1,837 1,854 1,863 1,865 1,869 1,873 1,903 1,909 1,911 1,913 1}
{1 1,4 1,29 1,32 1,37 1,39 1,41 1,51 1,55 1,56 1,58 1,61 1,82 1,85 1,95 1,114 1,115 1,152 1,162 1,205 1,247 1,260 1,277 1,299 1,308 1,321 1,328 1,338 1,361 1,365 1,369 1,388 1,391 1,425 1,463 1,474 1,497 1,512 1,518 1,528 1,531 1,534 1,536 1,538 1,541 1,627 1,657 1,679 1,693 1,750 1,755 1,758 1,763 1,782 1,783 1,790 1,796 1,798 1,807 1,831 1,836 1,849 1,854 1,861 1,865 1,870 1,878 1,883 1,911 1}
{4 1,16 1,21 1,39 1,55 1,56 1,121 1,130 1,152 1,168 1,277 1,369 1,388 1,416 1,433 1,451 1,515 1,520 1,537 1,542 1,695 1,703 1,714 1,782 1,783 1,785 1,788 1,790 1,796 1,799 1,804 1,807 1,823 1,838 1,854 1,865 1,869 1,872 1,883 1}
{24 1,39 1,51 1,55 1,115 1,165 1,228 1,300 1,332 1,369 1,388 1,391 1,464 1,507 1,518 1,657 1,783 1,807 1,858 1,913 1}
{4 1,18 1,29 1,32 1,39 1,45 1,51 1,56 1,61 1,67 1,113 1,121 1,123 1,168 1,183 1,210 1,233 1,241 1,266 1,271 1,286 1,328 1,329 1,339 1,342 1,357 1,361 1,369 1,388 1,391 1,429 1,438 1,441 1,449 1,463 1,491 1,497 1,515 1,528 1,532 1,536 1,538 1,541 1,616 1,618 1,681 1,694 1,709 1,716 1,746 1,752 1,759 1,763 1,779 1,782 1,783 1,785 1,788 1,789 1,791 1,798 1,801 1,804 1,807 1,823 1,841 1,849 1,854 1,857 1,860 1,879 1,904 1}
{4 1,6 1,25 1,28 1,34 1,37 1,39 1,82 1,94 1,114 1,123 1,152 1,168 1,184 1,194 1,204 1,209 1,210 1,216 1,232 1,239 1,271 1,277 1,283 1,300 1,305 1,329 1,361 1,365 1,369 1,388 1,389 1,391 1,392 1,402 1,433 1,449 1,457 1,466 1,481 1,490 1,491 1,501 1,515 1,528 1,536 1,546 1,549 1,552 1,567 1,580 1,615 1,629 1,658 1,683 1,714 1,715 1,728 1,750 1,763 1,779 1,782 1,783 1,788 1,790 1,792 1,793 1,796 1,803 1,807 1,847 1,851 1,852 1,858 1,864 1,867 1,875 1,877 1,891 1,893 1,895 1,909 1}
{4 1,26 1,31 1,32 1,39 1,51 1,55 1,56 1,70 1,76 1,82 1,83 1,93 1,106 1,114 1,123 1,153 1,168 1,171 1,177 1,196 1,208 1,209 1,210 1,228 1,232 1,243 1,260 1,271 1,272 1,286 1,308 1,313 1,329 1,332 1,345 1,346 1,357 1,361 1,365 1,369 1,388 1,439 1,453 1,457 1,458 1,463 1,464 1,477 1,493 1,507 1,518 1,528 1,536 1,541 1,552 1,553 1,583 1,584 1,585 1,586 1,604 1,618 1,657 1,677 1,746 1,763 1,769 1,770 1,773 1,782 1,783 1,784 1,785 1,790 1,793 1,807 1,812 1,823 1,833 1,849 1,858 1,863 1,865 1,869 1,872 1,873 1,880 1,881 1,884 1,898 1,903 1,909 1,913 1}
{1 1,4 1,37 1,39 1,43 1,55 1,56 1,58 1,65 1,82 1,85 1,114 1,123 1,128 1,152 1,204 1,215 1,230 1,237 1,277 1,299 1,328 1,361 1,369 1,388 1,391 1,463 1,474 1,497 1,518 1,528 1,536 1,538 1,541 1,548 1,626 1,632 1,633 1,642 1,657 1,666 1,693 1,714 1,752 1,779 1,782 1,783 1,788 1,789 1,796 1,807 1,831 1,835 1,836 1,867 1,872 1,883 1,890 1,895 1,907 1}
{4 1,6 1,8 1,29 1,37 1,39 1,55 1,56 1,61 1,75 1,82 1,86 1,94 1,115 1,166 1,167 1,168 1,169 1,204 1,209 1,211 1,228 1,237 1,270 1,286 1,312 1,314 1,326 1,337 1,357 1,369 1,379 1,386 1,388 1,391 1,402 1,420 1,433 1,452 1,463 1,478 1,495 1,513 1,518 1,525 1,528 1,536 1,609 1,615 1,623 1,657 1,697 1,709 1,720 1,732 1,767 1,772 1,779 1,782 1,783 1,784 1,788 1,790 1,792 1,796 1,798 1,807 1,815 1,825 1,827 1,836 1,849 1,854 1,858 1,867 1,877 1,883 1,895 1,909 1,912 1}
{4 1,7 1,12 1,13 1,17 1,24 1,29 1,39 1,42 1,43 1,51 1,56 1,61 1,68 1,82 1,116 1,134 1,140 1,177 1,195 1,204 1,209 1,211 1,222 1,223 1,228 1,258 1,266 1,277 1,284 1,286 1,291 1,293 1,320 1,326 1,329 1,347 1,361 1,365 1,369 1,388 1,391 1,393 1,403 1,412 1,417 1,427 1,453 1,455 1,456 1,472 1,491 1,498 1,500 1,509 1,515 1,528 1,536 1,541 1,549 1,558 1,570 1,587 1,616 1,617 1,619 1,634 1,695 1,702 1,761 1,763 1,780 1,782 1,783 1,784 1,790 1,793 1,796 1,804 1,807 1,813 1,824 1,828 1,832 1,837 1,867 1,875 1,877 1,879 1,883 1,895 1,904 1,906 1,909 1,911 1,913 1}
{6 1,14 1,18 1,24 1,26 1,29 1,31 1,32 1,39 1,41 1,43 1,45 1,46 1,51 1,52 1,61 1,82 1,83 1,85 1,114 1,115 1,123 1,124 1,128 1,129 1,136 1,159 1,170 1,204 1,211 1,234 1,249 1,265 1,266 1,272 1,289 1,291 1,299 1,300 1,306 1,310 1,313 1,315 1,321 1,328 1,329 1,331 1,335 1,338 1,339 1,361 1,365 1,369 1,385 1,386 1,388 1,390 1,391 1,429 1,430 1,443 1,447 1,468 1,491 1,497 1,512 1,515 1,518 1,528 1,536 1,538 1,539 1,541 1,553 1,557 1,587 1,592 1,594 1,617 1,627 1,657 1,693 1,694 1,695 1,701 1,709 1,714 1,718 1,720 1,755 1,782 1,783 1,784 1,790 1,796 1,804 1,807 1,819 1,823 1,828 1,834 1,836 1,838 1,851 1,854 1,867 1,869 1,872 1,873 1,877 1,883 1,895 1,904 1}
{4 1,29 1,32 1,39 1,82 1,123 1,228 1,277 1,361 1,382 1,444 1,468 1,482 1,498 1,541 1,594 1,607 1,782 1,783 1,788 1,806 1,807 1,895 1,909 1}
{39 1,45 1,51 1,70 1,153 1,249 1,252 1,282 1,361 1,365 1,402 1,657 1,807 1,854 1,869 1,888 1,913 1}
{4 1,24 1,29 1,43 1,51 1,115 1,181 1,228 1,277 1,308 1,329 1,332 1,361 1,369 1,388 1,391 1,528 1,536 1,570 1,645 1,695 1,748 1,760 1,766 1,780 1,782 1,783 1,788 1,789 1,790 1,793 1,807 1,818 1,836 1,837 1,840 1,875 1,883 1,909 1}
{4 1,24 1,29 1,35 1,37 1,39 1,55 1,56 1,61 1,71 1,77 1,82 1,85 1,86 1,114 1,115 1,120 1,125 1,126 1,128 1,149 1,152 1,162 1,165 1,168 1,169 1,171 1,176 1,194 1,195 1,216 1,220 1,228 1,265 1,266 1,273 1,277 1,278 1,283 1,284 1,286 1,300 1,301 1,303 1,304 1,310 1,315 1,321 1,324 1,326 1,329 1,335 1,337 1,357 1,358 1,361 1,362 1,365 1,369 1,382 1,388 1,391 1,393 1,402 1,404 1,416 1,429 1,437 1,449 1,456 1,460 1,470 1,475 1,482 1,491 1,495 1,501 1,504 1,510 1,515 1,518 1,523 1,528 1,536 1,538 1,539 1,541 1,547 1,548 1,551 1,552 1,567 1,568 1,599 1,603 1,605 1,609 1,615 1,644 1,647 1,656 1,657 1,660 1,669 1,697 1,702 1,703 1,711 1,732 1,754 1,763 1,782 1,783 1,790 1,792 1,793 1,796 1,798 1,802 1,803 1,807 1,815 1,820 1,825 1,836 1,840 1,846 1,849 1,854 1,858 1,859 1,865 1,867 1,876 1,890 1,900 1,903 1,909 1,911 1,912 1}
{29 1,39 1,88 1,177 1,210 1,233 1,261 1,272 1,281 1,294 1,295 1,321 1,328 1,329 1,332 1,346 1,359 1,361 1,369 1,398 1,402 1,453 1,464 1,507 1,515 1,539 1,552 1,584 1,588 1,657 1,763 1,782 1,783 1,793 1,800 1,801 1,807 1,823 1,913 1}
{4 1,39 1,99 1,270 1,308 1,332 1,361 1,369 1,388 1,391 1,399 1,402 1,437 1,472 1,516 1,528 1,536 1,580 1,667 1,782 1,783 1,793 1,807 1,841 1}
{4 1,25 1,37 1,39 1,55 1,56 1,166 1,168 1,169 1,177 1,204 1,228 1,237 1,238 1,286 1,312 1,317 1,357 1,361 1,369 1,379 1,386 1,388 1,389 1,391 1,402 1,416 1,420 1,433 1,459 1,480 1,495 1,505 1,528 1,534 1,546 1,625 1,657 1,683 1,709 1,711 1,717 1,750 1,763 1,767 1,782 1,783 1,785 1,793 1,794 1,796 1,806 1,807 1,825 1,834 1,836 1,851 1,852 1,872 1,877 1,885 1,895 1,909 1}
{4 1,13 1,55 1,66 1,85 1,109 1,135 1,207 1,219 1,228 1,234 1,258 1,294 1,328 1,365 1,369 1,388 1,391 1,412 1,439 1,455 1,471 1,497 1,509 1,555 1,568 1,625 1,655 1,656 1,657 1,709 1,782 1,783 1,786 1,790 1,807 1,821 1,870 1,872 1,879 1,913 1}
{4 1,6 1,11 1,14 1,15 1,18 1,19 1,24 1,26 1,29 1,31 1,32 1,37 1,39 1,42 1,43 1,44 1,51 1,53 1,55 1,56 1,61 1,68 1,82 1,83 1,85 1,86 1,87 1,103 1,104 1,114 1,115 1,123 1,125 1,128 1,130 1,152 1,170 1,177 1,186 1,201 1,202 1,204 1,208 1,210 1,211 1,214 1,215 1,221 1,222 1,224 1,229 1,239 1,241 1,242 1,248 1,250 1,259 1,264 1,267 1,269 1,271 1,277 1,280 1,286 1,289 1,291 1,293 1,300 1,301 1,304 1,305 1,307 1,308 1,317 1,321 1,326 1,328 1,329 1,330 1,332 1,345 1,352 1,353 1,357 1,358 1,361 1,365 1,369 1,379 1,386 1,388 1,389 1,391 1,402 1,409 1,411 1,417 1,431 1,433 1,435 1,437 1,439 1,441 1,449 1,453 1,458 1,463 1,469 1,470 1,474 1,478 1,484 1,491 1,493 1,497 1,503 1,507 1,508 1,509 1,515 1,516 1,518 1,521 1,528 1,529 1,532 1,533 1,536 1,537 1,538 1,539 1,541 1,548 1,551 1,552 1,553 1,554 1,561 1,563 1,564 1,567 1,569 1,570 1,603 1,604 1,613 1,616 1,619 1,625 1,627 1,630 1,631 1,634 1,640 1,645 1,647 1,649 1,652 1,655 1,657 1,658 1,659 1,667 1,673 1,679 1,684 1,695 1,700 1,709 1,714 1,721 1,727 1,740 1,745 1,746 1,748 1,752 1,755 1,759 1,763 1,764 1,765 1,766 1,778 1,779 1,782 1,783 1,784 1,785 1,786 1,788 1,789 1,790 1,791 1,793 1,796 1,798 1,804 1,807 1,812 1,818 1,821 1,823 1,832 1,846 1,852 1,854 1,858 1,860 1,861 1,863 1,865 1,869 1,870 1,871 1,875 1,877 1,879 1,883 1,884 1,885 1,889 1,895 1,899 1,902 1,904 1,905 1,907 1,909 1,911 1}
{4 1,6 1,23 1,24 1,39 1,48 1,51 1,56 1,61 1,82 1,92 1,97 1,106 1,114 1,115 1,123 1,157 1,170 1,210 1,228 1,242 1,243 1,267 1,273 1,277 1,311 1,318 1,321 1,361 1,364 1,369 1,388 1,391 1,497 1,501 1,508 1,515 1,518 1,520 1,522 1,528 1,529 1,536 1,541 1,548 1,552 1,618 1,627 1,638 1,642 1,657 1,690 1,694 1,709 1,714 1,728 1,752 1,763 1,779 1,782 1,783 1,788 1,789 1,790 1,796 1,835 1,850 1,854 1,865 1,872 1,873 1,883 1,895 1,909 1,911 1}
{4 1,6 1,11 1,24 1,39 1,51 1,67 1,76 1,82 1,83 1,114 1,123 1,128 1,153 1,204 1,242 1,260 1,262 1,264 1,277 1,286 1,329 1,365 1,368 1,369 1,399 1,402 1,433 1,459 1,491 1,493 1,528 1,551 1,584 1,600 1,625 1,656 1,657 1,679 1,695 1,709 1,744 1,767 1,769 1,780 1,782 1,783 1,790 1,798 1,807 1,812 1,823 1,836 1,846 1,852 1,858 1,859 1,870 1,872 1,875 1,877 1,882 1,883 1,909 1,913 1}
{4 1,37 1,39 1,43 1,55 1,85 1,100 1,108 1,123 1,152 1,208 1,221 1,228 1,243 1,274 1,327 1,328 1,329 1,369 1,388 1,391 1,433 1,456 1,470 1,491 1,493 1,518 1,528 1,541 1,630 1,684 1,709 1,714 1,715 1,727 1,745 1,763 1,775 1,782 1,783 1,796 1,807 1,862 1,871 1,872 1}
{4 1,30 1,37 1,39 1,55 1,56 1,115 1,138 1,149 1,167 1,171 1,204 1,228 1,277 1,286 1,304 1,328 1,335 1,355 1,361 1,369 1,388 1,391 1,394 1,405 1,411 1,416 1,433 1,439 1,491 1,495 1,518 1,528 1,535 1,539 1,541 1,568 1,657 1,690 1,691 1,761 1,779 1,782 1,783 1,790 1,792 1,801 1,807 1,846 1,863 1,867 1,872 1,895 1}
{4 1,6 1,11 1,14 1,22 1,32 1,37 1,39 1,41 1,51 1,61 1,67 1,70 1,80 1,82 1,83 1,86 1,88 1,91 1,104 1,114 1,123 1,130 1,164 1,183 1,209 1,210 1,213 1,246 1,251 1,260 1,261 1,262 1,267 1,286 1,293 1,295 1,300 1,305 1,306 1,308 1,310 1,318 1,319 1,321 1,326 1,328 1,329 1,332 1,335 1,344 1,361 1,365 1,369 1,386 1,388 1,389 1,391 1,417 1,433 1,435 1,438 1,471 1,479 1,497 1,502 1,513 1,515 1,518 1,521 1,528 1,532 1,536 1,538 1,572 1,573 1,583 1,620 1,630 1,638 1,647 1,657 1,659 1,660 1,661 1,677 1,679 1,709 1,740 1,743 1,763 1,769 1,782 1,783 1,784 1,788 1,790 1,793 1,796 1,798 1,800 1,807 1,812 1,816 1,837 1,841 1,854 1,855 1,856 1,858 1,863 1,864 1,865 1,869 1,879 1,891 1,895 1,903 1,909 1,913 1}
{4 1,6 1,7 1,15 1,24 1,29 1,37 1,39 1,43 1,51 1,52 1,55 1,56 1,82 1,83 1,86 1,97 1,100 1,103 1,106 1,108 1,114 1,123 1,128 1,138 1,152 1,162 1,168 1,170 1,207 1,210 1,213 1,218 1,230 1,233 1,242 1,247 1,249 1,250 1,259 1,264 1,275 1,277 1,286 1,300 1,302 1,306 1,308 1,310 1,317 1,318 1,321 1,329 1,331 1,335 1,338 1,339 1,360 1,361 1,365 1,368 1,369 1,371 1,373 1,388 1,391 1,392 1,402 1,409 1,421 1,428 1,430 1,433 1,434 1,436 1,441 1,449 1,463 1,468 1,478 1,491 1,494 1,495 1,496 1,497 1,509 1,515 1,518 1,519 1,521 1,523 1,528 1,529 1,537 1,538 1,541 1,548 1,551 1,552 1,567 1,570 1,580 1,591 1,603 1,604 1,618 1,622 1,626 1,637 1,638 1,657 1,659 1,660 1,667 1,679 1,687 1,698 1,703 1,714 1,715 1,750 1,758 1,759 1,761 1,763 1,779 1,782 1,783 1,784 1,788 1,789 1,790 1,791 1,792 1,793 1,796 1,807 1,812 1,834 1,849 1,854 1,858 1,863 1,867 1,869 1,872 1,879 1,883 1,895 1,909 1}
{4 1,11 1,34 1,39 1,51 1,82 1,152 1,204 1,210 1,216 1,232 1,233 1,246 1,277 1,283 1,329 1,337 1,361 1,369 1,388 1,389 1,391 1,402 1,453 1,468 1,469 1,497 1,500 1,501 1,528 1,533 1,536 1,539 1,541 1,549 1,567 1,629 1,658 1,717 1,725 1,728 1,763 1,782 1,783 1,788 1,790 1,796 1,803 1,807 1,812 1,823 1,835 1,863 1,872 1,875 1,877 1,893 1,895 1,896 1,902 1,906 1,909 1}
{37 1,45 1,51 1,87 1,91 1,92 1,145 1,204 1,299 1,303 1,328 1,353 1,369 1,388 1,509 1,510 1,541 1,571 1,592 1,620 1,703 1,715 1,779 1,783 1,789 1,793 1,807 1,834 1,855 1,872 1,908 1,909 1,913 1}
{4 1,5 1,16 1,24 1,39 1,51 1,56 1,61 1,71 1,79 1,82 1,85 1,114 1,115 1,134 1,140 1,194 1,201 1,204 1,238 1,242 1,243 1,250 1,275 1,277 1,284 1,286 1,292 1,318 1,328 1,333 1,334 1,339 1,360 1,365 1,369 1,371 1,388 1,391 1,429 1,433 1,441 1,457 1,469 1,496 1,509 1,515 1,518 1,521 1,528 1,536 1,539 1,548 1,551 1,553 1,570 1,573 1,591 1,593 1,594 1,597 1,601 1,612 1,616 1,617 1,625 1,629 1,648 1,652 1,655 1,695 1,697 1,713 1,725 1,739 1,750 1,772 1,782 1,783 1,784 1,786 1,790 1,796 1,804 1,807 1,809 1,822 1,824 1,828 1,834 1,840 1,854 1,859 1,865 1,867 1,868 1,872 1,879 1,883 1,884 1,890 1,904 1,911 1}
{82 1,119 1,308 1,496 1,782 1,790 1,807 1,811 1}
{4 1,6 1,27 1,37 1,39 1,51 1,56 1,61 1,68 1,82 1,83 1,87 1,92 1,106 1,114 1,127 1,154 1,168 1,170 1,177 1,188 1,195 1,199 1,218 1,233 1,250 1,277 1,282 1,286 1,308 1,310 1,317 1,320 1,332 1,336 1,343 1,345 1,353 1,361 1,369 1,388 1,389 1,391 1,402 1,417 1,423 1,433 1,439 1,449 1,457 1,468 1,471 1,493 1,495 1,515 1,518 1,521 1,528 1,536 1,539 1,541 1,555 1,600 1,601 1,619 1,622 1,625 1,645 1,647 1,649 1,655 1,657 1,667 1,669 1,677 1,679 1,681 1,714 1,716 1,744 1,755 1,763 1,779 1,782 1,783 1,785 1,788 1,790 1,793 1,796 1,797 1,807 1,849 1,854 1,858 1,865 1,872 1,883 1,895 1,909 1,913 1}
{4 1,5 1,6 1,16 1,24 1,29 1,30 1,37 1,39 1,43 1,44 1,46 1,51 1,55 1,56 1,61 1,71 1,82 1,83 1,92 1,94 1,113 1,114 1,115 1,119 1,123 1,128 1,134 1,152 1,158 1,170 1,199 1,204 1,207 1,210 1,242 1,243 1,244 1,245 1,253 1,258 1,260 1,261 1,275 1,276 1,277 1,284 1,299 1,300 1,302 1,303 1,308 1,317 1,329 1,339 1,357 1,361 1,363 1,365 1,369 1,375 1,382 1,386 1,388 1,391 1,402 1,404 1,409 1,416 1,433 1,442 1,445 1,449 1,457 1,458 1,459 1,467 1,470 1,488 1,494 1,495 1,497 1,503 1,515 1,518 1,521 1,523 1,528 1,536 1,538 1,539 1,541 1,552 1,557 1,567 1,570 1,591 1,601 1,605 1,606 1,612 1,615 1,630 1,644 1,657 1,660 1,680 1,698 1,709 1,714 1,741 1,752 1,763 1,775 1,779 1,782 1,783 1,784 1,785 1,788 1,789 1,790 1,791 1,793 1,796 1,798 1,807 1,812 1,834 1,835 1,836 1,849 1,852 1,853 1,865 1,867 1,871 1,873 1,875 1,877 1,878 1,879 1,883 1,885 1,895 1,909 1}
{4 1,7 1,37 1,39 1,51 1,55 1,61 1,65 1,82 1,146 1,156 1,168 1,181 1,228 1,237 1,238 1,267 1,277 1,286 1,300 1,329 1,337 1,355 1,357 1,361 1,365 1,369 1,388 1,389 1,391 1,402 1,408 1,420 1,433 1,453 1,468 1,480 1,488 1,495 1,505 1,518 1,526 1,528 1,531 1,532 1,541 1,543 1,552 1,559 1,580 1,588 1,618 1,657 1,688 1,711 1,732 1,756 1,763 1,779 1,782 1,783 1,793 1,796 1,807 1,815 1,830 1,835 1,843 1,859 1,863 1,879 1,883 1,895 1,907 1,909 1,911 1,912 1}
{4 1,6 1,55 1,61 1,85 1,228 1,313 1,346 1,348 1,361 1,369 1,536 1,553 1,585 1,609 1,633 1,677 1,783 1,784 1,807 1,825 1,846 1,867 1,891 1,913 1}
{4 1,5 1,6 1,32 1,37 1,39 1,43 1,48 1,54 1,56 1,82 1,85 1,87 1,91 1,93 1,110 1,114 1,115 1,123 1,128 1,158 1,195 1,204 1,210 1,224 1,228 1,229 1,236 1,245 1,271 1,277 1,286 1,328 1,329 1,339 1,342 1,357 1,361 1,366 1,369 1,376 1,377 1,388 1,391 1,392 1,409 1,410 1,433 1,441 1,444 1,453 1,478 1,491 1,493 1,509 1,520 1,523 1,526 1,528 1,536 1,538 1,541 1,554 1,609 1,613 1,625 1,627 1,657 1,667 1,671 1,672 1,673 1,690 1,696 1,703 1,719 1,730 1,751 1,763 1,764 1,766 1,782 1,783 1,785 1,788 1,789 1,790 1,796 1,804 1,807 1,832 1,834 1,837 1,854 1,859 1,867 1,869 1,879 1,883 1,895 1,909 1}
{4 1,16 1,17 1,28 1,36 1,37 1,39 1,43 1,51 1,56 1,61 1,70 1,75 1,82 1,83 1,85 1,93 1,96 1,99 1,111 1,112 1,114 1,115 1,123 1,152 1,156 1,157 1,159 1,161 1,165 1,168 1,170 1,172 1,194 1,196 1,211 1,213 1,228 1,243 1,264 1,271 1,273 1,277 1,286 1,303 1,311 1,321 1,329 1,333 1,337 1,345 1,358 1,360 1,361 1,363 1,368 1,369 1,374 1,375 1,388 1,391 1,411 1,416 1,434 1,439 1,441 1,457 1,463 1,488 1,490 1,491 1,493 1,495 1,497 1,501 1,515 1,518 1,519 1,523 1,528 1,529 1,536 1,537 1,541 1,552 1,559 1,570 1,580 1,591 1,596 1,597 1,603 1,614 1,615 1,643 1,657 1,667 1,679 1,690 1,714 1,716 1,719 1,742 1,761 1,763 1,764 1,766 1,779 1,782 1,783 1,784 1,786 1,788 1,789 1,790 1,793 1,796 1,801 1,804 1,805 1,807 1,813 1,814 1,826 1,834 1,849 1,852 1,854 1,858 1,862 1,865 1,869 1,870 1,875 1,879 1,883 1,884 1,887 1,890 1,895 1,900 1,909 1,911 1}
{4 1,6 1,29 1,39 1,51 1,76 1,82 1,94 1,115 1,121 1,123 1,140 1,172 1,182 1,210 1,220 1,228 1,245 1,261 1,277 1,300 1,318 1,328 1,332 1,345 1,347 1,361 1,365 1,369 1,388 1,417 1,438 1,453 1,457 1,476 1,478 1,528 1,552 1,571 1,620 1,678 1,703 1,715 1,720 1,744 1,782 1,783 1,807 1,826 1,834 1,860 1,872 1,897 1,903 1,909 1,913 1}
{4 1,6 1,11 1,24 1,32 1,33 1,37 1,39 1,56 1,61 1,82 1,88 1,91 1,114 1,115 1,124 1,134 1,161 1,167 1,168 1,174 1,175 1,202 1,245 1,260 1,277 1,284 1,286 1,329 1,336 1,353 1,361 1,369 1,388 1,444 1,463 1,468 1,473 1,479 1,491 1,502 1,518 1,528 1,541 1,563 1,645 1,687 1,695 1,696 1,703 1,714 1,723 1,752 1,778 1,782 1,783 1,796 1,804 1,807 1,890 1,895 1,909 1,911 1}
{4 1,30 1,39 1,43 1,45 1,46 1,51 1,55 1,61 1,82 1,94 1,97 1,114 1,123 1,152 1,154 1,160 1,166 1,167 1,168 1,170 1,177 1,186 1,193 1,204 1,210 1,213 1,225 1,228 1,242 1,250 1,255 1,277 1,305 1,310 1,313 1,317 1,337 1,357 1,361 1,365 1,369 1,370 1,388 1,391 1,392 1,420 1,425 1,431 1,435 1,439 1,451 1,452 1,456 1,471 1,478 1,481 1,488 1,490 1,491 1,498 1,509 1,512 1,515 1,518 1,528 1,536 1,538 1,541 1,552 1,569 1,601 1,615 1,618 1,638 1,657 1,667 1,695 1,697 1,709 1,714 1,718 1,732 1,750 1,761 1,762 1,763 1,772 1,779 1,782 1,783 1,786 1,788 1,795 1,796 1,806 1,807 1,815 1,823 1,828 1,833 1,836 1,840 1,852 1,858 1,867 1,879 1,890 1,895 1,896 1,904 1,909 1,911 1,912 1}
{4 1,7 1,22 1,26 1,31 1,32 1,39 1,43 1,46 1,51 1,55 1,56 1,71 1,82 1,85 1,88 1,92 1,93 1,114 1,121 1,123 1,127 1,152 1,153 1,168 1,203 1,207 1,209 1,210 1,226 1,233 1,243 1,260 1,279 1,286 1,305 1,308 1,313 1,321 1,329 1,332 1,346 1,348 1,361 1,365 1,369 1,388 1,417 1,433 1,439 1,441 1,448 1,457 1,458 1,463 1,464 1,468 1,491 1,493 1,507 1,518 1,528 1,530 1,536 1,539 1,553 1,555 1,577 1,584 1,586 1,597 1,600 1,618 1,630 1,632 1,655 1,657 1,667 1,676 1,677 1,679 1,691 1,695 1,731 1,746 1,763 1,769 1,770 1,779 1,782 1,783 1,784 1,785 1,788 1,790 1,793 1,796 1,798 1,799 1,807 1,812 1,834 1,849 1,854 1,860 1,863 1,865 1,867 1,869 1,872 1,873 1,879 1,880 1,881 1,882 1,883 1,887 1,896 1,903 1,904 1,909 1,913 1}
{4 1,5 1,6 1,14 1,15 1,17 1,24 1,38 1,39 1,42 1,43 1,51 1,56 1,61 1,70 1,82 1,87 1,90 1,100 1,108 1,114 1,115 1,123 1,161 1,170 1,182 1,184 1,197 1,201 1,202 1,204 1,225 1,228 1,244 1,246 1,257 1,266 1,269 1,277 1,286 1,307 1,310 1,329 1,333 1,334 1,361 1,365 1,369 1,379 1,386 1,388 1,391 1,399 1,409 1,424 1,426 1,431 1,433 1,437 1,439 1,453 1,460 1,468 1,469 1,470 1,472 1,473 1,474 1,478 1,482 1,491 1,496 1,497 1,506 1,508 1,509 1,512 1,513 1,516 1,517 1,518 1,528 1,533 1,536 1,537 1,538 1,541 1,548 1,550 1,552 1,553 1,564 1,570 1,592 1,603 1,614 1,625 1,654 1,657 1,667 1,679 1,694 1,709 1,714 1,721 1,725 1,739 1,746 1,750 1,758 1,782 1,783 1,786 1,787 1,788 1,790 1,796 1,798 1,800 1,802 1,807 1,822 1,828 1,829 1,836 1,837 1,863 1,865 1,867 1,869 1,873 1,877 1,883 1,893 1,895 1,909 1,911 1}
{14 1,39 1,43 1,55 1,61 1,82 1,92 1,114 1,117 1,166 1,167 1,210 1,271 1,361 1,369 1,394 1,528 1,539 1,568 1,585 1,630 1,680 1,709 1,713 1,741 1,763 1,779 1,782 1,783 1,793 1,807 1,856 1,895 1}
{4 1,28 1,29 1,39 1,56 1,70 1,83 1,160 1,208 1,210 1,222 1,228 1,232 1,277 1,300 1,316 1,328 1,339 1,347 1,361 1,388 1,391 1,402 1,409 1,439 1,453 1,455 1,470 1,497 1,498 1,509 1,518 1,528 1,541 1,552 1,587 1,709 1,715 1,763 1,780 1,781 1,782 1,783 1,796 1,807 1,822 1,831 1,906 1,913 1}
{4 1,35 1,39 1,43 1,51 1,55 1,74 1,114 1,118 1,123 1,139 1,171 1,207 1,217 1,228 1,298 1,309 1,342 1,369 1,370 1,381 1,388 1,391 1,448 1,471 1,473 1,499 1,518 1,523 1,528 1,536 1,538 1,539 1,541 1,578 1,611 1,671 1,692 1,706 1,757 1,772 1,776 1,782 1,783 1,788 1,791 1,796 1,807 1,812 1,833 1,837 1,842 1,843 1,854 1,862 1,867 1,872 1,909 1}
{4 1,6 1,9 1,39 1,51 1,55 1,56 1,57 1,61 1,82 1,92 1,94 1,112 1,114 1,152 1,166 1,168 1,200 1,210 1,251 1,267 1,277 1,280 1,286 1,305 1,329 1,330 1,335 1,357 1,361 1,365 1,369 1,386 1,388 1,391 1,392 1,402 1,409 1,417 1,419 1,420 1,433 1,441 1,443 1,445 1,449 1,456 1,468 1,469 1,478 1,506 1,520 1,521 1,528 1,533 1,538 1,541 1,562 1,580 1,601 1,606 1,616 1,657 1,681 1,695 1,703 1,709 1,716 1,746 1,762 1,763 1,764 1,783 1,785 1,786 1,788 1,790 1,793 1,807 1,835 1,840 1,849 1,863 1,873 1,879 1,885 1,893 1,895 1,909 1}
{55 1,220 1,228 1,361 1,369 1,388 1,423 1,521 1,528 1,628 1,638 1,657 1,782 1,783 1,788 1,854 1,913 1}
{4 1,5 1,6 1,18 1,24 1,32 1,37 1,39 1,43 1,51 1,54 1,55 1,70 1,83 1,85 1,87 1,91 1,92 1,114 1,117 1,129 1,134 1,204 1,205 1,207 1,208 1,210 1,211 1,213 1,229 1,232 1,235 1,266 1,305 1,326 1,329 1,335 1,352 1,358 1,361 1,369 1,386 1,388 1,391 1,426 1,433 1,441 1,449 1,457 1,497 1,515 1,518 1,520 1,528 1,538 1,541 1,563 1,564 1,578 1,603 1,615 1,616 1,645 1,647 1,714 1,716 1,746 1,763 1,766 1,768 1,776 1,782 1,783 1,785 1,788 1,789 1,790 1,791 1,796 1,807 1,810 1,834 1,854 1,858 1,861 1,869 1,879 1,883 1,890 1,895 1,904 1,911 1}
{4 1,6 1,7 1,19 1,24 1,32 1,34 1,37 1,39 1,41 1,42 1,43 1,49 1,51 1,52 1,55 1,56 1,57 1,61 1,64 1,82 1,87 1,97 1,114 1,115 1,126 1,152 1,153 1,178 1,183 1,185 1,204 1,210 1,216 1,243 1,245 1,256 1,267 1,270 1,277 1,283 1,284 1,292 1,300 1,302 1,307 1,317 1,329 1,336 1,357 1,361 1,363 1,365 1,368 1,369 1,388 1,391 1,402 1,420 1,426 1,432 1,433 1,437 1,441 1,449 1,451 1,453 1,457 1,463 1,466 1,470 1,482 1,488 1,490 1,491 1,497 1,501 1,513 1,518 1,528 1,534 1,536 1,538 1,539 1,541 1,543 1,548 1,549 1,552 1,567 1,582 1,596 1,601 1,615 1,617 1,629 1,630 1,642 1,657 1,658 1,680 1,703 1,709 1,714 1,720 1,721 1,725 1,728 1,733 1,750 1,755 1,763 1,768 1,782 1,783 1,784 1,786 1,788 1,790 1,791 1,792 1,793 1,796 1,798 1,803 1,804 1,807 1,820 1,829 1,834 1,837 1,847 1,849 1,854 1,858 1,859 1,863 1,867 1,869 1,872 1,875 1,882 1,883 1,885 1,888 1,893 1,895 1,902 1,906 1,909 1,911 1}
{4 1,37 1,39 1,88 1,123 1,240 1,294 1,313 1,328 1,332 1,361 1,369 1,388 1,391 1,405 1,657 1,763 1,783 1,790 1,796 1,834 1,913 1}
{4 1,29 1,32 1,33 1,36 1,37 1,39 1,43 1,51 1,55 1,56 1,61 1,67 1,82 1,113 1,114 1,117 1,121 1,123 1,130 1,145 1,168 1,183 1,210 1,227 1,233 1,241 1,266 1,271 1,277 1,286 1,308 1,329 1,342 1,357 1,361 1,363 1,369 1,388 1,391 1,429 1,438 1,449 1,454 1,463 1,478 1,491 1,497 1,515 1,528 1,532 1,536 1,538 1,541 1,616 1,618 1,681 1,694 1,709 1,714 1,716 1,746 1,752 1,759 1,763 1,766 1,779 1,782 1,783 1,784 1,785 1,788 1,789 1,791 1,796 1,798 1,801 1,807 1,812 1,819 1,821 1,823 1,841 1,846 1,849 1,857 1,860 1,869 1,873 1,879 1,883 1,895 1,909 1}
{4 1,24 1,29 1,34 1,39 1,51 1,61 1,128 1,133 1,152 1,177 1,181 1,208 1,210 1,216 1,225 1,228 1,270 1,277 1,283 1,318 1,321 1,329 1,330 1,343 1,345 1,361 1,365 1,369 1,383 1,388 1,391 1,433 1,500 1,501 1,518 1,528 1,536 1,549 1,567 1,569 1,594 1,595 1,604 1,618 1,625 1,629 1,643 1,657 1,658 1,671 1,695 1,715 1,728 1,763 1,775 1,782 1,783 1,790 1,793 1,796 1,803 1,807 1,859 1,875 1,893 1,907 1,909 1}
{4 1,5 1,14 1,39 1,43 1,45 1,55 1,61 1,73 1,76 1,82 1,114 1,123 1,153 1,210 1,228 1,241 1,251 1,277 1,329 1,332 1,361 1,369 1,388 1,391 1,399 1,419 1,425 1,449 1,463 1,469 1,491 1,495 1,518 1,528 1,551 1,553 1,561 1,567 1,585 1,600 1,709 1,721 1,763 1,781 1,782 1,783 1,796 1,800 1,807 1,810 1,834 1,835 1,854 1,859 1,883 1,911 1,913 1}
{43 1,61 1,83 1,123 1,125 1,180 1,231 1,286 1,300 1,328 1,336 1,369 1,388 1,425 1,473 1,497 1,541 1,557 1,616 1,669 1,693 1,780 1,782 1,784 1,785 1,788 1,807 1,858 1}
{4 1,11 1,46 1,48 1,55 1,82 1,114 1,117 1,152 1,269 1,361 1,369 1,402 1,453 1,464 1,518 1,528 1,541 1,667 1,681 1,709 1,719 1,763 1,768 1,796 1,807 1,837 1,859 1}
{4 1,11 1,41 1,51 1,55 1,61 1,67 1,76 1,82 1,114 1,123 1,165 1,171 1,177 1,195 1,208 1,210 1,228 1,271 1,272 1,277 1,313 1,361 1,369 1,388 1,407 1,457 1,515 1,528 1,552 1,611 1,618 1,714 1,763 1,773 1,783 1,807 1,823 1,840 1,854 1,859 1,873 1,880 1,883 1,884 1,903 1,909 1,913 1}
{4 1,6 1,9 1,39 1,43 1,51 1,97 1,114 1,152 1,201 1,258 1,271 1,299 1,353 1,361 1,365 1,385 1,388 1,409 1,424 1,433 1,455 1,491 1,507 1,521 1,535 1,612 1,657 1,677 1,781 1,782 1,783 1,807 1,867 1,883 1,895 1}
{4 1,5 1,11 1,25 1,37 1,39 1,56 1,61 1,87 1,117 1,177 1,204 1,212 1,228 1,237 1,267 1,317 1,361 1,365 1,369 1,372 1,388 1,416 1,420 1,459 1,470 1,505 1,528 1,534 1,535 1,600 1,601 1,618 1,620 1,625 1,657 1,683 1,687 1,709 1,714 1,717 1,746 1,750 1,783 1,785 1,788 1,793 1,794 1,806 1,807 1,834 1,872 1,885 1,909 1}
{4 1,11 1,55 1,82 1,83 1,182 1,228 1,294 1,295 1,329 1,345 1,369 1,391 1,418 1,493 1,528 1,541 1,583 1,676 1,686 1,783 1,807 1,854 1,893 1,895 1,913 1}
{6 1,24 1,37 1,56 1,61 1,82 1,87 1,90 1,152 1,161 1,179 1,197 1,204 1,228 1,257 1,266 1,329 1,361 1,369 1,388 1,391 1,402 1,424 1,425 1,426 1,431 1,453 1,472 1,478 1,528 1,536 1,537 1,550 1,552 1,595 1,614 1,654 1,657 1,694 1,721 1,782 1,783 1,788 1,796 1,798 1,799 1,802 1,807 1,837 1,844 1,867 1,895 1,909 1,911 1}
{4 1,6 1,30 1,37 1,44 1,82 1,123 1,159 1,209 1,271 1,277 1,303 1,357 1,361 1,363 1,369 1,386 1,391 1,497 1,518 1,528 1,536 1,538 1,541 1,552 1,594 1,618 1,657 1,679 1,705 1,709 1,751 1,752 1,763 1,782 1,783 1,796 1,807 1,811 1,854 1,881 1,885 1,895 1}
{4 1,24 1,39 1,51 1,71 1,85 1,127 1,168 1,222 1,228 1,235 1,252 1,277 1,321 1,328 1,329 1,331 1,345 1,361 1,369 1,388 1,391 1,399 1,478 1,493 1,510 1,528 1,630 1,647 1,657 1,746 1,782 1,783 1,786 1,788 1,789 1,807 1,812 1,883 1,903 1,913 1}
{4 1,24 1,39 1,45 1,61 1,70 1,82 1,86 1,97 1,108 1,114 1,123 1,130 1,153 1,168 1,170 1,182 1,204 1,207 1,213 1,220 1,232 1,235 1,244 1,271 1,277 1,286 1,315 1,321 1,324 1,325 1,326 1,328 1,361 1,369 1,386 1,388 1,391 1,392 1,402 1,426 1,431 1,433 1,439 1,448 1,453 1,456 1,470 1,484 1,497 1,515 1,518 1,520 1,528 1,536 1,600 1,643 1,677 1,690 1,709 1,746 1,759 1,762 1,763 1,764 1,779 1,782 1,783 1,786 1,789 1,796 1,807 1,809 1,811 1,815 1,817 1,822 1,831 1,836 1,837 1,854 1,856 1,862 1,883 1,891 1}
{39 1,70 1,123 1,149 1,152 1,181 1,228 1,265 1,277 1,287 1,300 1,318 1,361 1,377 1,388 1,403 1,450 1,455 1,528 1,613 1,672 1,683 1,750 1,783 1,796 1,807 1,867 1,870 1}
{4 1,24 1,54 1,61 1,62 1,277 1,297 1,305 1,345 1,347 1,353 1,369 1,380 1,385 1,477 1,528 1,539 1,553 1,655 1,657 1,679 1,704 1,772 1,783 1,809 1,834 1,842 1,854 1,895 1,909 1,913 1}
{32 1,44 1,56 1,90 1,125 1,184 1,208 1,248 1,259 1,264 1,277 1,361 1,365 1,388 1,399 1,433 1,470 1,497 1,528 1,529 1,659 1,763 1,782 1,783 1,784 1,788 1,796 1,807 1,905 1}
{0 1,1 1,2 1,3 1,4 1,8 1,24 1,38 1,39 1,49 1,51 1,56 1,68 1,69 1,114 1,115 1,116 1,117 1,164 1,175 1,177 1,178 1,184 1,191 1,193 1,220 1,222 1,225 1,258 1,271 1,277 1,286 1,293 1,299 1,314 1,320 1,328 1,329 1,355 1,361 1,369 1,377 1,388 1,392 1,393 1,400 1,401 1,408 1,420 1,432 1,447 1,451 1,453 1,484 1,485 1,487 1,501 1,509 1,515 1,518 1,528 1,529 1,536 1,538 1,539 1,544 1,553 1,559 1,561 1,568 1,592 1,597 1,602 1,605 1,610 1,611 1,620 1,621 1,622 1,629 1,654 1,657 1,672 1,685 1,700 1,703 1,725 1,726 1,729 1,731 1,738 1,753 1,761 1,777 1,778 1,779 1,783 1,789 1,796 1,804 1,807 1,816 1,823 1,840 1,844 1,854 1,860 1,865 1,884 1}
{51 1,175 1,271 1,307 1,536 1,625 1,783 1,790 1,875 1,913 1}
{4 1,6 1,24 1,51 1,55 1,67 1,82 1,87 1,117 1,123 1,152 1,221 1,222 1,253 1,277 1,283 1,305 1,308 1,321 1,329 1,353 1,361 1,365 1,369 1,384 1,391 1,409 1,428 1,439 1,449 1,453 1,455 1,470 1,472 1,482 1,496 1,497 1,507 1,528 1,538 1,548 1,552 1,564 1,573 1,580 1,625 1,627 1,630 1,655 1,657 1,679 1,683 1,727 1,745 1,759 1,764 1,780 1,781 1,782 1,783 1,785 1,788 1,807 1,843 1,854 1,860 1,867 1,870 1,874 1,875 1,877 1,884 1,893 1,909 1,911 1}
{4 1,10 1,11 1,14 1,18 1,29 1,37 1,39 1,43 1,45 1,46 1,47 1,49 1,51 1,54 1,56 1,60 1,61 1,64 1,78 1,82 1,83 1,87 1,110 1,111 1,114 1,119 1,128 1,135 1,151 1,156 1,160 1,166 1,167 1,189 1,191 1,195 1,204 1,207 1,209 1,210 1,220 1,222 1,228 1,238 1,243 1,264 1,277 1,290 1,293 1,300 1,305 1,306 1,307 1,311 1,313 1,316 1,317 1,324 1,329 1,332 1,336 1,339 1,357 1,358 1,361 1,363 1,365 1,369 1,387 1,388 1,391 1,392 1,402 1,409 1,416 1,420 1,424 1,433 1,434 1,441 1,442 1,451 1,453 1,468 1,478 1,479 1,491 1,493 1,495 1,497 1,501 1,502 1,504 1,509 1,510 1,513 1,515 1,518 1,521 1,528 1,536 1,538 1,539 1,541 1,548 1,567 1,580 1,591 1,600 1,605 1,608 1,609 1,611 1,614 1,629 1,630 1,637 1,642 1,657 1,664 1,679 1,687 1,689 1,694 1,697 1,703 1,707 1,714 1,716 1,721 1,725 1,726 1,736 1,743 1,752 1,754 1,755 1,763 1,776 1,779 1,782 1,783 1,789 1,793 1,796 1,799 1,802 1,807 1,810 1,812 1,820 1,825 1,831 1,835 1,836 1,846 1,849 1,854 1,855 1,867 1,871 1,872 1,873 1,879 1,883 1,891 1,895 1,907 1,909 1}
{173 1,195 1,228 1,277 1,286 1,457 1,479 1,555 1,790 1,809 1,913 1}
{4 1,29 1,39 1,51 1,114 1,124 1,205 1,207 1,276 1,328 1,369 1,388 1,391 1,411 1,471 1,518 1,528 1,541 1,657 1,681 1,684 1,715 1,736 1,766 1,782 1,783 1,796 1,807 1,822 1,829 1,867 1,869 1,875 1,877 1,883 1}
{4 1,6 1,15 1,37 1,55 1,59 1,86 1,114 1,122 1,137 1,277 1,293 1,328 1,361 1,388 1,390 1,391 1,411 1,464 1,468 1,470 1,500 1,501 1,515 1,518 1,527 1,528 1,536 1,538 1,548 1,609 1,616 1,657 1,660 1,673 1,763 1,774 1,779 1,781 1,782 1,783 1,796 1,797 1,807 1,831 1,834 1,840 1,856 1,883 1,909 1}
{39 1,55 1,61 1,76 1,123 1,223 1,228 1,277 1,305 1,369 1,391 1,528 1,538 1,548 1,569 1,643 1,657 1,739 1,783 1,804 1,807 1,835 1,870 1,909 1,913 1}
{4 1,32 1,37 1,39 1,56 1,58 1,61 1,67 1,70 1,73 1,82 1,83 1,87 1,122 1,123 1,126 1,135 1,176 1,195 1,205 1,209 1,210 1,220 1,243 1,267 1,270 1,299 1,300 1,305 1,321 1,338 1,339 1,344 1,345 1,361 1,369 1,388 1,417 1,440 1,442 1,453 1,470 1,484 1,497 1,500 1,508 1,512 1,518 1,528 1,529 1,535 1,536 1,541 1,552 1,554 1,617 1,618 1,657 1,659 1,660 1,672 1,679 1,690 1,693 1,709 1,725 1,728 1,763 1,774 1,775 1,782 1,783 1,785 1,788 1,796 1,801 1,807 1,810 1,813 1,822 1,835 1,852 1,854 1,859 1,864 1,865 1,869 1,875 1,879 1,883 1,895 1,903 1}
{4 1,11 1,61 1,97 1,168 1,196 1,204 1,291 1,299 1,300 1,433 1,451 1,469 1,495 1,520 1,528 1,535 1,750 1,763 1,779 1,782 1,783 1,799 1,807 1}
{4 1,24 1,55 1,61 1,109 1,114 1,135 1,146 1,177 1,204 1,228 1,294 1,295 1,307 1,322 1,329 1,352 1,361 1,369 1,388 1,470 1,491 1,505 1,518 1,530 1,538 1,539 1,577 1,583 1,588 1,623 1,657 1,675 1,735 1,746 1,769 1,779 1,782 1,783 1,807 1,854 1,867 1,875 1,902 1,909 1,911 1,913 1}
{4 1,7 1,29 1,39 1,45 1,46 1,56 1,63 1,70 1,71 1,82 1,87 1,95 1,140 1,196 1,231 1,242 1,270 1,271 1,277 1,286 1,315 1,321 1,326 1,329 1,361 1,365 1,369 1,382 1,386 1,388 1,391 1,402 1,426 1,431 1,441 1,493 1,508 1,515 1,519 1,528 1,533 1,536 1,538 1,541 1,580 1,593 1,629 1,630 1,631 1,657 1,660 1,671 1,679 1,687 1,699 1,701 1,709 1,714 1,739 1,752 1,763 1,764 1,782 1,783 1,793 1,796 1,804 1,807 1,809 1,812 1,839 1,849 1,853 1,854 1,863 1,867 1,870 1,885 1,895 1,909 1}
{4 1,6 1,28 1,31 1,39 1,43 1,51 1,55 1,56 1,61 1,64 1,78 1,82 1,87 1,88 1,114 1,123 1,135 1,151 1,166 1,167 1,168 1,182 1,196 1,204 1,211 1,220 1,229 1,233 1,243 1,277 1,306 1,308 1,313 1,316 1,329 1,332 1,336 1,357 1,361 1,363 1,365 1,369 1,388 1,391 1,392 1,402 1,420 1,432 1,433 1,441 1,442 1,444 1,445 1,451 1,468 1,470 1,478 1,479 1,493 1,501 1,513 1,515 1,521 1,528 1,536 1,539 1,542 1,552 1,567 1,580 1,609 1,611 1,614 1,627 1,629 1,630 1,642 1,657 1,679 1,689 1,694 1,695 1,699 1,703 1,709 1,714 1,716 1,725 1,763 1,782 1,783 1,788 1,790 1,793 1,796 1,807 1,810 1,831 1,834 1,835 1,848 1,863 1,867 1,869 1,879 1,883 1,891 1,895 1,909 1}
{4 1,6 1,39 1,41 1,55 1,56 1,82 1,83 1,85 1,114 1,123 1,146 1,196 1,204 1,213 1,228 1,308 1,318 1,329 1,332 1,344 1,347 1,361 1,365 1,369 1,388 1,417 1,493 1,515 1,521 1,528 1,535 1,552 1,575 1,657 1,685 1,709 1,746 1,763 1,782 1,783 1,790 1,793 1,796 1,807 1,811 1,812 1,834 1,852 1,854 1,865 1,875 1,877 1,883 1,885 1,895 1,896 1,903 1,910 1,913 1}
{92 1,95 1,113 1,440 1,639 1,785 1,807 1,911 1}
{4 1,6 1,10 1,21 1,24 1,29 1,30 1,37 1,39 1,41 1,43 1,51 1,54 1,56 1,61 1,68 1,70 1,82 1,85 1,86 1,94 1,99 1,113 1,114 1,115 1,116 1,123 1,140 1,152 1,154 1,159 1,177 1,204 1,209 1,222 1,232 1,234 1,243 1,245 1,258 1,264 1,273 1,277 1,286 1,300 1,307 1,312 1,328 1,329 1,342 1,343 1,347 1,358 1,361 1,369 1,370 1,377 1,386 1,387 1,388 1,389 1,390 1,391 1,392 1,402 1,405 1,407 1,409 1,416 1,420 1,430 1,432 1,433 1,439 1,449 1,453 1,455 1,463 1,464 1,468 1,470 1,483 1,487 1,491 1,493 1,496 1,497 1,498 1,500 1,502 1,515 1,516 1,518 1,520 1,521 1,528 1,536 1,538 1,539 1,541 1,545 1,547 1,548 1,551 1,552 1,553 1,565 1,567 1,580 1,587 1,597 1,601 1,603 1,606 1,611 1,612 1,618 1,621 1,628 1,630 1,637 1,638 1,642 1,649 1,652 1,653 1,657 1,658 1,659 1,672 1,679 1,703 1,707 1,714 1,716 1,746 1,752 1,763 1,765 1,766 1,777 1,782 1,783 1,784 1,785 1,788 1,789 1,790 1,791 1,793 1,796 1,802 1,807 1,820 1,823 1,828 1,831 1,832 1,834 1,835 1,836 1,839 1,840 1,843 1,846 1,854 1,858 1,862 1,865 1,869 1,870 1,872 1,873 1,877 1,879 1,883 1,884 1,900 1,904 1,909 1}
{4 1,19 1,26 1,29 1,31 1,39 1,51 1,56 1,61 1,76 1,82 1,83 1,106 1,107 1,168 1,170 1,177 1,192 1,242 1,264 1,277 1,286 1,308 1,329 1,357 1,361 1,369 1,391 1,428 1,433 1,454 1,476 1,509 1,518 1,528 1,536 1,560 1,583 1,625 1,647 1,657 1,709 1,751 1,782 1,783 1,790 1,793 1,799 1,801 1,807 1,812 1,854 1,859 1,872 1,873 1,883 1,913 1}
{4 1,39 1,57 1,82 1,114 1,152 1,181 1,195 1,332 1,361 1,369 1,388 1,391 1,402 1,409 1,491 1,518 1,528 1,567 1,587 1,638 1,695 1,715 1,783 1,788 1,790 1,793 1,807 1,895 1}
{4 1,6 1,37 1,39 1,61 1,82 1,85 1,115 1,123 1,168 1,239 1,280 1,339 1,369 1,377 1,388 1,391 1,408 1,434 1,491 1,493 1,500 1,509 1,526 1,527 1,539 1,541 1,542 1,581 1,607 1,618 1,657 1,659 1,667 1,695 1,715 1,763 1,782 1,783 1,789 1,796 1,807 1,854 1,856 1,863 1,883 1,891 1,907 1}
{745 1,865 1,913 1}
{4 1,32 1,39 1,44 1,51 1,55 1,56 1,82 1,84 1,90 1,117 1,125 1,208 1,210 1,222 1,228 1,248 1,259 1,264 1,277 1,283 1,328 1,361 1,365 1,369 1,384 1,388 1,402 1,409 1,433 1,437 1,439 1,455 1,470 1,472 1,497 1,507 1,515 1,528 1,529 1,567 1,573 1,580 1,625 1,627 1,657 1,659 1,683 1,763 1,782 1,783 1,784 1,788 1,796 1,807 1,843 1,867 1,869 1,870 1,875 1,893 1,905 1,909 1}
{4 1,24 1,55 1,56 1,92 1,94 1,111 1,166 1,167 1,177 1,194 1,204 1,208 1,210 1,228 1,237 1,264 1,277 1,329 1,365 1,369 1,382 1,388 1,416 1,420 1,463 1,505 1,509 1,515 1,528 1,541 1,601 1,607 1,683 1,716 1,730 1,750 1,763 1,764 1,786 1,792 1,806 1,807 1,834 1,852 1,875 1,879 1,895 1,909 1}
{4 1,6 1,13 1,14 1,24 1,29 1,37 1,39 1,41 1,43 1,46 1,51 1,52 1,56 1,61 1,72 1,82 1,85 1,86 1,92 1,94 1,114 1,115 1,125 1,126 1,132 1,135 1,136 1,195 1,204 1,206 1,209 1,210 1,213 1,223 1,257 1,261 1,262 1,268 1,275 1,277 1,286 1,292 1,294 1,310 1,317 1,321 1,328 1,329 1,330 1,332 1,342 1,344 1,345 1,347 1,349 1,353 1,357 1,358 1,360 1,361 1,369 1,386 1,388 1,391 1,402 1,412 1,426 1,435 1,441 1,447 1,454 1,458 1,460 1,464 1,491 1,495 1,507 1,508 1,518 1,521 1,528 1,529 1,536 1,541 1,548 1,549 1,553 1,583 1,586 1,612 1,616 1,618 1,624 1,641 1,647 1,655 1,657 1,669 1,676 1,682 1,691 1,694 1,695 1,705 1,709 1,718 1,740 1,763 1,782 1,783 1,786 1,790 1,801 1,802 1,804 1,805 1,807 1,813 1,816 1,834 1,837 1,846 1,854 1,858 1,864 1,867 1,869 1,870 1,875 1,877 1,881 1,883 1,895 1,898 1,913 1}
{4 1,14 1,28 1,31 1,36 1,39 1,43 1,46 1,51 1,55 1,82 1,83 1,85 1,115 1,147 1,152 1,195 1,196 1,204 1,208 1,220 1,221 1,228 1,243 1,267 1,277 1,286 1,291 1,304 1,321 1,327 1,328 1,329 1,331 1,332 1,339 1,345 1,361 1,365 1,369 1,388 1,389 1,391 1,409 1,410 1,453 1,456 1,473 1,497 1,515 1,518 1,528 1,529 1,536 1,541 1,550 1,561 1,567 1,625 1,628 1,634 1,660 1,679 1,691 1,703 1,727 1,745 1,760 1,763 1,765 1,766 1,782 1,783 1,784 1,788 1,789 1,790 1,796 1,807 1,863 1,869 1,875 1,879 1,883 1,902 1,904 1,909 1,911 1}
{4 1,6 1,14 1,30 1,37 1,39 1,43 1,45 1,46 1,51 1,55 1,56 1,82 1,86 1,94 1,96 1,111 1,113 1,114 1,123 1,152 1,154 1,161 1,166 1,168 1,177 1,179 1,184 1,186 1,193 1,194 1,204 1,242 1,249 1,255 1,271 1,273 1,277 1,286 1,305 1,307 1,313 1,328 1,357 1,361 1,365 1,369 1,388 1,389 1,391 1,392 1,420 1,427 1,431 1,435 1,439 1,451 1,452 1,471 1,478 1,488 1,489 1,493 1,498 1,508 1,509 1,518 1,528 1,536 1,538 1,543 1,548 1,552 1,554 1,569 1,601 1,609 1,625 1,630 1,657 1,665 1,688 1,718 1,731 1,739 1,746 1,750 1,761 1,762 1,763 1,764 1,766 1,772 1,779 1,782 1,783 1,788 1,796 1,801 1,807 1,813 1,820 1,821 1,833 1,836 1,840 1,843 1,852 1,854 1,869 1,876 1,877 1,879 1,881 1,883 1,885 1,896 1,904 1,909 1,911 1}
{4 1,6 1,14 1,16 1,24 1,28 1,29 1,39 1,41 1,45 1,56 1,61 1,72 1,75 1,78 1,82 1,83 1,86 1,97 1,114 1,115 1,164 1,168 1,187 1,206 1,207 1,213 1,224 1,229 1,262 1,271 1,277 1,278 1,284 1,286 1,294 1,302 1,304 1,307 1,308 1,310 1,313 1,321 1,329 1,332 1,344 1,345 1,347 1,349 1,353 1,361 1,365 1,369 1,388 1,391 1,392 1,402 1,432 1,435 1,437 1,441 1,442 1,443 1,454 1,457 1,495 1,497 1,500 1,509 1,512 1,513 1,528 1,530 1,534 1,536 1,539 1,552 1,561 1,577 1,583 1,630 1,655 1,656 1,660 1,675 1,677 1,691 1,704 1,708 1,709 1,746 1,755 1,766 1,782 1,783 1,789 1,791 1,795 1,799 1,802 1,807 1,819 1,822 1,823 1,834 1,836 1,854 1,864 1,865 1,869 1,879 1,883 1,890 1,903 1,909 1,913 1}
{4 1,6 1,39 1,43 1,51 1,82 1,91 1,114 1,117 1,130 1,147 1,177 1,211 1,222 1,244 1,277 1,279 1,283 1,289 1,324 1,329 1,335 1,336 1,361 1,365 1,369 1,377 1,383 1,384 1,388 1,391 1,409 1,433 1,439 1,455 1,470 1,472 1,507 1,515 1,518 1,528 1,536 1,538 1,541 1,548 1,552 1,560 1,563 1,564 1,573 1,580 1,613 1,625 1,627 1,630 1,645 1,657 1,683 1,709 1,714 1,749 1,759 1,778 1,782 1,783 1,788 1,790 1,795 1,796 1,807 1,820 1,837 1,843 1,854 1,865 1,867 1,870 1,873 1,875 1,893 1,909 1}
{4 1,5 1,6 1,11 1,24 1,37 1,39 1,43 1,51 1,55 1,56 1,61 1,68 1,77 1,87 1,93 1,114 1,116 1,123 1,152 1,157 1,196 1,199 1,212 1,243 1,267 1,271 1,361 1,365 1,369 1,372 1,388 1,416 1,420 1,467 1,470 1,482 1,508 1,517 1,520 1,528 1,535 1,536 1,538 1,600 1,601 1,608 1,618 1,621 1,625 1,657 1,658 1,660 1,677 1,687 1,709 1,714 1,719 1,720 1,746 1,752 1,763 1,783 1,788 1,789 1,790 1,795 1,801 1,806 1,807 1,835 1,836 1,854 1,865 1,872 1,883 1,885 1,904 1,906 1,909 1}
{6 1,43 1,45 1,55 1,168 1,228 1,321 1,361 1,365 1,369 1,391 1,407 1,433 1,470 1,528 1,541 1,683 1,715 1,781 1,812 1,854 1,888 1,895 1,913 1}
{4 1,35 1,55 1,59 1,74 1,114 1,123 1,171 1,207 1,210 1,228 1,298 1,309 1,369 1,388 1,433 1,442 1,448 1,470 1,518 1,528 1,536 1,538 1,539 1,541 1,578 1,611 1,671 1,763 1,782 1,783 1,789 1,796 1,807 1,833 1,842 1,862 1,883 1,909 1}
{4 1,5 1,18 1,32 1,39 1,51 1,55 1,82 1,114 1,123 1,138 1,154 1,182 1,195 1,228 1,250 1,277 1,286 1,339 1,361 1,369 1,377 1,388 1,441 1,444 1,510 1,518 1,528 1,536 1,541 1,607 1,618 1,695 1,709 1,719 1,782 1,783 1,804 1,805 1,807 1,909 1}
{22 1,39 1,51 1,101 1,190 1,228 1,277 1,286 1,325 1,346 1,361 1,391 1,402 1,417 1,514 1,528 1,552 1,628 1,641 1,675 1,686 1,783 1,785 1,798 1,807 1,815 1,823 1,831 1,837 1,867 1,875 1,893 1,913 1}
{4 1,14 1,18 1,28 1,37 1,39 1,51 1,55 1,74 1,77 1,82 1,85 1,118 1,130 1,139 1,140 1,169 1,177 1,181 1,197 1,217 1,228 1,267 1,298 1,309 1,329 1,331 1,338 1,355 1,361 1,363 1,365 1,369 1,381 1,388 1,391 1,433 1,443 1,463 1,495 1,499 1,518 1,528 1,541 1,552 1,578 1,592 1,640 1,679 1,692 1,693 1,706 1,757 1,782 1,783 1,789 1,807 1,812 1,823 1,834 1,854 1,859 1,867 1,869 1,877 1,904 1,910 1,911 1}
{4 1,23 1,24 1,39 1,43 1,51 1,55 1,56 1,64 1,82 1,83 1,107 1,152 1,208 1,228 1,232 1,249 1,264 1,277 1,286 1,329 1,332 1,357 1,363 1,369 1,388 1,391 1,399 1,409 1,450 1,468 1,472 1,505 1,515 1,518 1,522 1,528 1,535 1,536 1,541 1,548 1,588 1,591 1,657 1,716 1,724 1,725 1,726 1,763 1,782 1,783 1,786 1,788 1,796 1,804 1,807 1,836 1,849 1,872 1,877 1,883 1,909 1,910 1}
{45 1,61 1,353 1,409 1,528 1,657 1,783 1,825 1,851 1,881 1,913 1}
{4 1,6 1,43 1,55 1,61 1,74 1,83 1,118 1,123 1,125 1,139 1,217 1,228 1,230 1,231 1,286 1,298 1,300 1,305 1,309 1,328 1,336 1,369 1,381 1,388 1,391 1,425 1,439 1,473 1,497 1,499 1,505 1,528 1,539 1,541 1,557 1,578 1,616 1,669 1,692 1,693 1,706 1,752 1,757 1,763 1,782 1,783 1,784 1,785 1,788 1,807 1,812 1,858 1}
{4 1,5 1,6 1,21 1,24 1,33 1,37 1,39 1,46 1,47 1,55 1,56 1,61 1,82 1,86 1,100 1,115 1,122 1,123 1,149 1,170 1,204 1,212 1,228 1,239 1,242 1,243 1,264 1,267 1,278 1,286 1,300 1,328 1,329 1,361 1,365 1,369 1,383 1,388 1,389 1,391 1,428 1,433 1,434 1,447 1,451 1,471 1,475 1,478 1,489 1,491 1,496 1,508 1,509 1,518 1,528 1,533 1,537 1,541 1,552 1,559 1,568 1,597 1,599 1,600 1,604 1,611 1,622 1,638 1,647 1,657 1,673 1,703 1,709 1,714 1,763 1,768 1,779 1,782 1,783 1,784 1,785 1,788 1,790 1,792 1,796 1,801 1,802 1,804 1,807 1,812 1,825 1,838 1,854 1,855 1,859 1,865 1,869 1,883 1,909 1,911 1}
{4 1,6 1,11 1,12 1,15 1,16 1,17 1,24 1,28 1,30 1,37 1,39 1,43 1,51 1,53 1,55 1,56 1,61 1,62 1,70 1,72 1,75 1,76 1,82 1,83 1,87 1,88 1,91 1,92 1,93 1,94 1,109 1,112 1,114 1,115 1,120 1,123 1,128 1,129 1,135 1,136 1,152 1,153 1,169 1,171 1,182 1,187 1,188 1,204 1,207 1,208 1,210 1,213 1,225 1,228 1,239 1,241 1,243 1,245 1,249 1,253 1,264 1,267 1,268 1,270 1,271 1,272 1,277 1,281 1,282 1,286 1,292 1,294 1,295 1,303 1,304 1,306 1,307 1,308 1,310 1,319 1,328 1,329 1,330 1,332 1,336 1,344 1,345 1,347 1,348 1,350 1,358 1,361 1,365 1,368 1,369 1,388 1,389 1,391 1,397 1,409 1,417 1,423 1,425 1,428 1,433 1,434 1,438 1,439 1,446 1,453 1,454 1,456 1,457 1,461 1,464 1,468 1,469 1,470 1,478 1,481 1,482 1,489 1,491 1,493 1,495 1,497 1,505 1,507 1,515 1,518 1,521 1,528 1,533 1,534 1,536 1,538 1,539 1,541 1,548 1,552 1,553 1,561 1,567 1,575 1,576 1,577 1,583 1,584 1,585 1,586 1,590 1,591 1,594 1,600 1,601 1,619 1,623 1,625 1,629 1,630 1,637 1,649 1,655 1,657 1,660 1,667 1,668 1,677 1,679 1,694 1,695 1,703 1,709 1,713 1,714 1,721 1,733 1,735 1,739 1,746 1,763 1,767 1,773 1,779 1,782 1,783 1,784 1,785 1,788 1,790 1,791 1,793 1,795 1,796 1,797 1,798 1,799 1,801 1,804 1,805 1,807 1,812 1,817 1,822 1,823 1,832 1,834 1,837 1,844 1,849 1,852 1,856 1,859 1,863 1,865 1,867 1,869 1,870 1,872 1,874 1,875 1,877 1,879 1,880 1,883 1,885 1,887 1,890 1,895 1,898 1,909 1,910 1,911 1,913 1}
{4 1,6 1,20 1,24 1,36 1,37 1,39 1,43 1,51 1,56 1,61 1,67 1,82 1,83 1,85 1,86 1,87 1,90 1,92 1,93 1,103 1,113 1,114 1,115 1,134 1,146 1,153 1,168 1,170 1,184 1,202 1,204 1,231 1,239 1,242 1,243 1,277 1,285 1,286 1,300 1,302 1,304 1,308 1,324 1,328 1,329 1,330 1,339 1,343 1,351 1,361 1,365 1,369 1,386 1,387 1,388 1,391 1,399 1,409 1,429 1,433 1,453 1,463 1,472 1,474 1,493 1,497 1,509 1,517 1,518 1,528 1,536 1,537 1,538 1,539 1,541 1,548 1,554 1,561 1,563 1,648 1,657 1,660 1,690 1,695 1,709 1,713 1,715 1,752 1,756 1,763 1,782 1,783 1,784 1,785 1,788 1,789 1,790 1,796 1,807 1,812 1,832 1,836 1,837 1,867 1,869 1,872 1,873 1,879 1,883 1,895 1,899 1,909 1,911 1}
{4 1,5 1,6 1,9 1,24 1,55 1,92 1,150 1,152 1,164 1,200 1,210 1,228 1,307 1,329 1,336 1,357 1,362 1,369 1,404 1,407 1,453 1,488 1,506 1,516 1,518 1,521 1,525 1,528 1,541 1,562 1,616 1,672 1,695 1,703 1,754 1,763 1,782 1,783 1,785 1,789 1,807 1,827 1,859 1,877 1,883 1}
{4 1,6 1,14 1,24 1,29 1,39 1,51 1,55 1,61 1,76 1,82 1,94 1,105 1,107 1,115 1,121 1,123 1,140 1,172 1,177 1,220 1,228 1,245 1,261 1,277 1,280 1,300 1,313 1,318 1,328 1,329 1,330 1,332 1,339 1,345 1,347 1,361 1,365 1,369 1,388 1,391 1,402 1,417 1,435 1,441 1,453 1,457 1,470 1,476 1,478 1,497 1,510 1,515 1,518 1,528 1,552 1,571 1,572 1,585 1,620 1,638 1,678 1,683 1,684 1,703 1,715 1,720 1,744 1,750 1,763 1,782 1,783 1,807 1,826 1,834 1,860 1,872 1,875 1,897 1,903 1,909 1,913 1}
{4 1,29 1,32 1,39 1,51 1,53 1,55 1,56 1,61 1,82 1,85 1,95 1,101 1,114 1,115 1,124 1,162 1,177 1,178 1,222 1,228 1,260 1,277 1,308 1,328 1,361 1,365 1,369 1,387 1,388 1,391 1,393 1,425 1,453 1,463 1,474 1,497 1,518 1,528 1,538 1,548 1,578 1,605 1,627 1,693 1,695 1,755 1,758 1,763 1,782 1,783 1,786 1,790 1,792 1,796 1,798 1,807 1,831 1,836 1,852 1,865 1,870 1,877 1,878 1,883 1,895 1,896 1,909 1,911 1}
{4 1,6 1,14 1,23 1,24 1,29 1,30 1,32 1,37 1,39 1,41 1,44 1,51 1,55 1,56 1,80 1,82 1,85 1,97 1,99 1,104 1,114 1,115 1,122 1,123 1,159 1,204 1,207 1,209 1,211 1,225 1,228 1,233 1,244 1,267 1,270 1,271 1,277 1,286 1,300 1,303 1,304 1,305 1,308 1,310 1,329 1,342 1,353 1,357 1,361 1,363 1,365 1,369 1,386 1,388 1,391 1,402 1,409 1,437 1,441 1,453 1,454 1,456 1,463 1,465 1,469 1,472 1,477 1,483 1,490 1,491 1,497 1,515 1,518 1,521 1,522 1,528 1,529 1,535 1,536 1,537 1,538 1,541 1,547 1,548 1,552 1,559 1,567 1,594 1,616 1,618 1,627 1,647 1,657 1,660 1,667 1,668 1,669 1,679 1,689 1,694 1,705 1,707 1,709 1,715 1,716 1,725 1,751 1,752 1,763 1,775 1,779 1,782 1,783 1,785 1,786 1,788 1,790 1,792 1,793 1,796 1,800 1,807 1,809 1,811 1,835 1,854 1,858 1,867 1,868 1,870 1,872 1,875 1,877 1,879 1,881 1,883 1,885 1,893 1,895 1,904 1,909 1,911 1}
{4 1,51 1,61 1,76 1,109 1,162 1,171 1,228 1,241 1,308 1,347 1,369 1,377 1,388 1,391 1,393 1,433 1,442 1,627 1,763 1,783 1,796 1,807 1,826 1,869 1,883 1,913 1}
{4 1,6 1,45 1,47 1,52 1,71 1,82 1,85 1,114 1,115 1,123 1,130 1,157 1,163 1,177 1,207 1,233 1,239 1,277 1,328 1,329 1,358 1,361 1,365 1,369 1,388 1,391 1,411 1,428 1,464 1,495 1,497 1,518 1,528 1,552 1,569 1,600 1,603 1,679 1,680 1,691 1,701 1,703 1,752 1,782 1,783 1,788 1,796 1,804 1,807 1,818 1,822 1,883 1,904 1}
{4 1,9 1,14 1,23 1,24 1,32 1,39 1,51 1,55 1,56 1,61 1,67 1,107 1,114 1,123 1,152 1,158 1,159 1,200 1,208 1,211 1,228 1,243 1,245 1,267 1,277 1,279 1,300 1,305 1,318 1,329 1,338 1,342 1,345 1,361 1,363 1,365 1,369 1,391 1,402 1,409 1,416 1,417 1,424 1,435 1,440 1,442 1,453 1,463 1,477 1,478 1,483 1,490 1,497 1,506 1,518 1,521 1,522 1,528 1,535 1,536 1,540 1,541 1,548 1,552 1,562 1,567 1,660 1,690 1,725 1,746 1,752 1,763 1,768 1,782 1,783 1,790 1,791 1,796 1,807 1,810 1,834 1,836 1,854 1,858 1,865 1,867 1,869 1,875 1,883 1,885 1,903 1,909 1}
{4 1,36 1,37 1,39 1,55 1,56 1,76 1,82 1,321 1,361 1,369 1,390 1,391 1,416 1,428 1,436 1,441 1,456 1,528 1,536 1,585 1,632 1,642 1,783 1,788 1,807 1,837 1,854 1,867 1,883 1,913 1}
{4 1,29 1,32 1,39 1,51 1,55 1,56 1,61 1,67 1,113 1,117 1,121 1,123 1,145 1,168 1,183 1,210 1,224 1,233 1,241 1,266 1,271 1,277 1,286 1,289 1,305 1,329 1,342 1,357 1,361 1,369 1,388 1,391 1,429 1,438 1,449 1,489 1,491 1,497 1,515 1,528 1,532 1,536 1,538 1,541 1,616 1,618 1,681 1,694 1,709 1,714 1,716 1,746 1,752 1,759 1,763 1,779 1,782 1,783 1,785 1,788 1,789 1,791 1,798 1,801 1,807 1,823 1,841 1,849 1,857 1,860 1,861 1,879 1,909 1}
{4 1,23 1,29 1,32 1,39 1,43 1,56 1,82 1,87 1,97 1,114 1,115 1,184 1,199 1,204 1,228 1,244 1,277 1,329 1,339 1,342 1,357 1,361 1,363 1,364 1,365 1,369 1,391 1,402 1,441 1,453 1,477 1,496 1,504 1,517 1,518 1,521 1,522 1,526 1,528 1,541 1,548 1,601 1,603 1,604 1,660 1,678 1,681 1,688 1,697 1,716 1,725 1,729 1,743 1,752 1,779 1,782 1,783 1,786 1,794 1,807 1,867 1,877 1,895 1}
{4 1,24 1,39 1,45 1,51 1,61 1,85 1,114 1,153 1,224 1,246 1,249 1,252 1,261 1,264 1,277 1,302 1,328 1,329 1,342 1,357 1,361 1,365 1,369 1,388 1,391 1,402 1,409 1,423 1,447 1,468 1,528 1,572 1,656 1,676 1,709 1,735 1,740 1,783 1,784 1,785 1,788 1,796 1,807 1,834 1,873 1,895 1,903 1,913 1}
{4 1,11 1,24 1,32 1,39 1,43 1,44 1,51 1,55 1,56 1,82 1,85 1,91 1,92 1,114 1,123 1,125 1,152 1,170 1,177 1,181 1,201 1,202 1,210 1,228 1,239 1,248 1,259 1,264 1,267 1,277 1,317 1,321 1,326 1,327 1,328 1,329 1,330 1,339 1,352 1,358 1,361 1,365 1,369 1,388 1,391 1,402 1,404 1,433 1,435 1,441 1,449 1,453 1,459 1,470 1,474 1,493 1,496 1,497 1,507 1,509 1,515 1,518 1,528 1,529 1,536 1,541 1,567 1,613 1,623 1,629 1,647 1,649 1,657 1,658 1,659 1,668 1,681 1,682 1,709 1,714 1,720 1,739 1,752 1,755 1,763 1,782 1,783 1,784 1,788 1,796 1,798 1,807 1,812 1,829 1,837 1,852 1,858 1,863 1,875 1,879 1,883 1,889 1,893 1,895 1,904 1,905 1}
{3 1,4 1,37 1,39 1,51 1,82 1,85 1,90 1,97 1,114 1,115 1,123 1,135 1,195 1,213 1,228 1,233 1,239 1,289 1,329 1,361 1,363 1,365 1,369 1,391 1,392 1,404 1,416 1,427 1,437 1,441 1,468 1,478 1,493 1,518 1,520 1,521 1,528 1,535 1,541 1,548 1,591 1,615 1,618 1,638 1,696 1,703 1,709 1,714 1,752 1,779 1,782 1,783 1,790 1,791 1,792 1,796 1,807 1,854 1,870 1,874 1,895 1}
{4 1,24 1,39 1,51 1,244 1,286 1,317 1,329 1,361 1,433 1,438 1,462 1,528 1,548 1,551 1,583 1,609 1,625 1,711 1,762 1,779 1,782 1,783 1,790 1,807 1,869 1,875 1,913 1}
{4 1,9 1,16 1,24 1,29 1,45 1,51 1,107 1,114 1,115 1,124 1,163 1,265 1,277 1,308 1,329 1,369 1,375 1,377 1,382 1,388 1,516 1,518 1,528 1,536 1,547 1,564 1,567 1,614 1,645 1,657 1,695 1,722 1,783 1,796 1,807 1,854 1,872 1}
{4 1,8 1,17 1,23 1,24 1,39 1,51 1,56 1,71 1,82 1,84 1,93 1,94 1,97 1,103 1,114 1,204 1,210 1,228 1,239 1,267 1,277 1,286 1,300 1,303 1,305 1,310 1,324 1,329 1,360 1,361 1,364 1,365 1,368 1,369 1,388 1,389 1,391 1,402 1,410 1,463 1,477 1,478 1,497 1,509 1,518 1,522 1,528 1,529 1,533 1,536 1,538 1,548 1,549 1,551 1,554 1,618 1,657 1,696 1,709 1,714 1,719 1,752 1,763 1,780 1,781 1,782 1,783 1,793 1,796 1,807 1,835 1,854 1,859 1,872 1,883 1,895 1,898 1,909 1,911 1}
{4 1,22 1,24 1,27 1,37 1,39 1,51 1,55 1,56 1,92 1,97 1,99 1,114 1,115 1,117 1,145 1,148 1,152 1,171 1,196 1,218 1,228 1,243 1,277 1,292 1,308 1,321 1,328 1,329 1,332 1,349 1,361 1,368 1,369 1,388 1,398 1,417 1,449 1,460 1,462 1,491 1,493 1,507 1,509 1,521 1,524 1,528 1,539 1,552 1,588 1,601 1,657 1,667 1,670 1,676 1,677 1,679 1,682 1,744 1,746 1,763 1,769 1,773 1,779 1,782 1,783 1,785 1,796 1,807 1,834 1,844 1,846 1,854 1,859 1,872 1,873 1,875 1,883 1,903 1,906 1,909 1,913 1}
{39 1,43 1,45 1,82 1,231 1,329 1,377 1,388 1,391 1,500 1,528 1,536 1,657 1,701 1,783 1,807 1,828 1}
{11 1,24 1,37 1,39 1,61 1,82 1,88 1,114 1,123 1,196 1,210 1,265 1,277 1,305 1,319 1,329 1,333 1,361 1,365 1,369 1,380 1,391 1,401 1,433 1,457 1,497 1,508 1,528 1,539 1,553 1,593 1,642 1,657 1,671 1,682 1,709 1,725 1,763 1,783 1,786 1,796 1,797 1,798 1,800 1,817 1,831 1,867 1,875 1,895 1,909 1}
{4 1,29 1,39 1,43 1,51 1,61 1,76 1,82 1,88 1,182 1,203 1,210 1,228 1,251 1,260 1,271 1,277 1,295 1,312 1,321 1,328 1,329 1,342 1,361 1,369 1,388 1,391 1,399 1,403 1,425 1,449 1,496 1,514 1,528 1,538 1,588 1,631 1,638 1,657 1,681 1,756 1,763 1,764 1,770 1,782 1,783 1,788 1,793 1,796 1,807 1,867 1,903 1,913 1}
{4 1,14 1,28 1,31 1,36 1,37 1,39 1,43 1,46 1,51 1,55 1,82 1,85 1,114 1,115 1,152 1,186 1,208 1,210 1,211 1,220 1,221 1,224 1,228 1,247 1,248 1,267 1,271 1,277 1,291 1,304 1,317 1,321 1,328 1,329 1,332 1,361 1,369 1,388 1,389 1,391 1,409 1,410 1,431 1,453 1,468 1,473 1,474 1,479 1,491 1,493 1,497 1,507 1,515 1,516 1,518 1,528 1,532 1,536 1,539 1,541 1,561 1,563 1,567 1,625 1,634 1,657 1,661 1,667 1,673 1,689 1,691 1,703 1,727 1,741 1,745 1,746 1,763 1,765 1,766 1,779 1,782 1,783 1,784 1,788 1,796 1,807 1,818 1,831 1,869 1,875 1,879 1,883 1,904 1,909 1}
{10 1,39 1,51 1,115 1,283 1,286 1,293 1,360 1,369 1,388 1,389 1,392 1,491 1,587 1,638 1,647 1,763 1,782 1,783 1,788 1,796 1,798 1,807 1,821 1}
{4 1,37 1,82 1,85 1,114 1,128 1,168 1,188 1,220 1,244 1,256 1,277 1,284 1,294 1,304 1,328 1,332 1,345 1,349 1,365 1,369 1,388 1,417 1,449 1,460 1,505 1,516 1,528 1,536 1,541 1,580 1,625 1,709 1,763 1,769 1,770 1,783 1,784 1,796 1,807 1,834 1,837 1,875 1,877 1,896 1,913 1}
{4 1,6 1,11 1,29 1,39 1,51 1,55 1,56 1,59 1,61 1,77 1,80 1,85 1,94 1,114 1,116 1,123 1,152 1,227 1,239 1,245 1,275 1,276 1,277 1,286 1,300 1,321 1,329 1,330 1,361 1,365 1,369 1,388 1,391 1,393 1,409 1,425 1,431 1,438 1,457 1,470 1,491 1,495 1,497 1,501 1,518 1,528 1,536 1,538 1,540 1,541 1,552 1,567 1,601 1,615 1,627 1,632 1,645 1,646 1,648 1,699 1,709 1,714 1,763 1,779 1,782 1,783 1,789 1,790 1,793 1,796 1,807 1,810 1,832 1,840 1,846 1,876 1,879 1,883 1,893 1,909 1,911 1}
{4 1,49 1,55 1,67 1,69 1,82 1,150 1,177 1,220 1,311 1,313 1,353 1,355 1,369 1,383 1,388 1,392 1,400 1,433 1,447 1,485 1,501 1,515 1,536 1,595 1,625 1,630 1,640 1,654 1,657 1,685 1,715 1,781 1,783 1,790 1,796 1,807 1,844 1,854 1,867 1,872 1,890 1}
{39 1,45 1,100 1,131 1,152 1,207 1,228 1,233 1,244 1,281 1,286 1,294 1,297 1,329 1,361 1,369 1,391 1,463 1,630 1,657 1,686 1,782 1,783 1,793 1,796 1,797 1,854 1,906 1,913 1}
{4 1,6 1,32 1,39 1,43 1,45 1,51 1,55 1,56 1,61 1,74 1,82 1,91 1,114 1,115 1,118 1,123 1,139 1,152 1,205 1,217 1,228 1,277 1,286 1,298 1,303 1,307 1,309 1,339 1,361 1,365 1,369 1,377 1,381 1,385 1,388 1,391 1,409 1,425 1,470 1,473 1,475 1,499 1,515 1,518 1,521 1,528 1,539 1,541 1,560 1,578 1,583 1,630 1,679 1,692 1,706 1,709 1,722 1,746 1,755 1,757 1,782 1,783 1,788 1,789 1,796 1,807 1,812 1,822 1,834 1,863 1,879 1,895 1,909 1}
{4 1,6 1,10 1,23 1,29 1,30 1,31 1,33 1,39 1,41 1,44 1,45 1,51 1,55 1,56 1,61 1,67 1,80 1,82 1,114 1,115 1,117 1,123 1,156 1,159 1,170 1,196 1,204 1,207 1,209 1,212 1,228 1,244 1,264 1,270 1,277 1,286 1,300 1,303 1,304 1,305 1,307 1,321 1,345 1,353 1,357 1,361 1,365 1,369 1,386 1,388 1,391 1,402 1,418 1,420 1,441 1,453 1,454 1,456 1,463 1,465 1,469 1,482 1,483 1,490 1,491 1,508 1,515 1,518 1,521 1,522 1,528 1,536 1,538 1,539 1,541 1,548 1,552 1,567 1,597 1,609 1,616 1,618 1,638 1,642 1,647 1,657 1,659 1,669 1,673 1,679 1,689 1,705 1,709 1,714 1,720 1,725 1,740 1,752 1,755 1,763 1,766 1,779 1,782 1,783 1,786 1,788 1,793 1,796 1,807 1,811 1,835 1,852 1,854 1,867 1,868 1,872 1,875 1,879 1,881 1,883 1,895 1,909 1}
{4 1,39 1,51 1,55 1,76 1,82 1,85 1,102 1,111 1,114 1,125 1,131 1,152 1,167 1,168 1,176 1,198 1,207 1,228 1,232 1,243 1,262 1,277 1,286 1,305 1,329 1,343 1,365 1,369 1,388 1,391 1,440 1,450 1,457 1,464 1,488 1,507 1,518 1,528 1,536 1,539 1,541 1,552 1,567 1,569 1,585 1,597 1,601 1,625 1,656 1,709 1,714 1,715 1,718 1,782 1,783 1,790 1,807 1,823 1,834 1,849 1,852 1,867 1,869 1,877 1,879 1,895 1,909 1,913 1}
{4 1,37 1,51 1,55 1,74 1,82 1,88 1,114 1,118 1,121 1,139 1,152 1,168 1,204 1,209 1,210 1,217 1,228 1,298 1,309 1,328 1,329 1,332 1,361 1,362 1,365 1,369 1,381 1,388 1,391 1,413 1,470 1,491 1,499 1,518 1,528 1,552 1,563 1,578 1,692 1,706 1,757 1,763 1,777 1,778 1,782 1,783 1,788 1,790 1,793 1,796 1,807 1,812 1,877 1,895 1,909 1}
{4 1,13 1,39 1,56 1,212 1,224 1,234 1,286 1,332 1,361 1,369 1,417 1,477 1,482 1,497 1,528 1,536 1,559 1,592 1,601 1,638 1,657 1,783 1,807 1,854 1}
{4 1,6 1,24 1,39 1,51 1,61 1,114 1,209 1,246 1,305 1,319 1,357 1,365 1,388 1,402 1,441 1,492 1,539 1,552 1,625 1,638 1,657 1,676 1,707 1,709 1,740 1,782 1,783 1,788 1,796 1,807 1,821 1,822 1,834 1,849 1,858 1,859 1,875 1,879 1,909 1,913 1}
{4 1,24 1,29 1,39 1,51 1,55 1,61 1,70 1,74 1,82 1,95 1,115 1,118 1,139 1,157 1,170 1,213 1,214 1,217 1,228 1,243 1,277 1,286 1,298 1,300 1,309 1,329 1,339 1,369 1,381 1,388 1,391 1,433 1,437 1,449 1,463 1,468 1,493 1,496 1,499 1,505 1,515 1,516 1,518 1,521 1,528 1,532 1,536 1,538 1,539 1,541 1,569 1,578 1,603 1,668 1,684 1,692 1,695 1,705 1,706 1,709 1,752 1,757 1,775 1,782 1,783 1,784 1,785 1,786 1,788 1,790 1,796 1,807 1,812 1,822 1,835 1,875 1,879 1,883 1,900 1}
{4 1,13 1,29 1,32 1,37 1,39 1,55 1,73 1,82 1,107 1,121 1,123 1,207 1,222 1,228 1,277 1,329 1,361 1,369 1,382 1,388 1,444 1,468 1,482 1,491 1,495 1,498 1,541 1,573 1,594 1,607 1,711 1,782 1,783 1,788 1,806 1,807 1,831 1,895 1,909 1}
{4 1,11 1,32 1,39 1,43 1,45 1,48 1,55 1,82 1,88 1,109 1,123 1,152 1,195 1,196 1,207 1,233 1,277 1,281 1,284 1,294 1,296 1,297 1,300 1,331 1,344 1,345 1,361 1,365 1,369 1,391 1,443 1,500 1,514 1,536 1,541 1,548 1,570 1,583 1,629 1,630 1,657 1,667 1,686 1,695 1,754 1,762 1,763 1,769 1,782 1,783 1,790 1,793 1,796 1,797 1,800 1,807 1,854 1,866 1,867 1,883 1,885 1,895 1,902 1,909 1,913 1}
{51 1,55 1,74 1,83 1,118 1,121 1,139 1,152 1,204 1,217 1,228 1,237 1,298 1,309 1,329 1,369 1,381 1,388 1,391 1,437 1,499 1,510 1,520 1,528 1,536 1,541 1,567 1,578 1,625 1,657 1,692 1,706 1,714 1,720 1,757 1,783 1,790 1,798 1,807 1,812 1,867 1,883 1}
{14 1,26 1,39 1,277 1,328 1,332 1,333 1,334 1,345 1,369 1,388 1,422 1,525 1,528 1,536 1,553 1,592 1,640 1,657 1,725 1,743 1,764 1,782 1,783 1,807 1,809 1,854 1,855 1,874 1,879 1}
{4 1,6 1,24 1,29 1,56 1,62 1,82 1,84 1,100 1,109 1,114 1,123 1,131 1,152 1,171 1,177 1,188 1,204 1,219 1,228 1,243 1,271 1,277 1,286 1,289 1,294 1,297 1,302 1,308 1,329 1,332 1,345 1,347 1,348 1,361 1,365 1,369 1,388 1,391 1,418 1,439 1,442 1,463 1,468 1,510 1,518 1,528 1,536 1,537 1,541 1,548 1,552 1,558 1,591 1,603 1,657 1,667 1,703 1,709 1,714 1,715 1,739 1,782 1,783 1,790 1,791 1,793 1,796 1,804 1,807 1,826 1,837 1,863 1,879 1,880 1,883 1,913 1}
{39 1,45 1,55 1,105 1,123 1,124 1,189 1,369 1,380 1,470 1,528 1,683 1,783 1}
{4 1,39 1,51 1,56 1,271 1,277 1,286 1,306 1,345 1,354 1,369 1,428 1,448 1,497 1,528 1,533 1,535 1,541 1,546 1,623 1,657 1,677 1,709 1,726 1,779 1,782 1,783 1,835 1,909 1}
{4 1,6 1,19 1,24 1,32 1,37 1,39 1,51 1,54 1,56 1,61 1,76 1,82 1,85 1,93 1,94 1,107 1,115 1,186 1,204 1,210 1,228 1,241 1,271 1,277 1,286 1,294 1,295 1,328 1,329 1,345 1,358 1,361 1,365 1,369 1,388 1,391 1,417 1,441 1,444 1,449 1,491 1,495 1,515 1,516 1,528 1,541 1,548 1,550 1,552 1,567 1,570 1,601 1,603 1,630 1,657 1,667 1,682 1,716 1,725 1,731 1,758 1,763 1,779 1,782 1,783 1,784 1,788 1,796 1,804 1,807 1,822 1,829 1,834 1,863 1,867 1,883 1,909 1,913 1}
{4 1,14 1,28 1,37 1,39 1,51 1,77 1,82 1,105 1,114 1,115 1,130 1,140 1,177 1,181 1,197 1,226 1,228 1,242 1,260 1,275 1,281 1,311 1,325 1,329 1,331 1,361 1,363 1,365 1,369 1,372 1,388 1,425 1,443 1,449 1,458 1,463 1,470 1,478 1,495 1,501 1,518 1,528 1,541 1,551 1,592 1,612 1,626 1,657 1,670 1,679 1,693 1,714 1,716 1,734 1,782 1,783 1,789 1,793 1,796 1,807 1,823 1,831 1,835 1,859 1,873 1,911 1}
{4 1,8 1,14 1,17 1,23 1,24 1,39 1,51 1,55 1,56 1,61 1,71 1,82 1,84 1,87 1,93 1,94 1,95 1,98 1,103 1,106 1,114 1,182 1,184 1,204 1,210 1,228 1,239 1,274 1,277 1,286 1,300 1,303 1,305 1,310 1,311 1,318 1,324 1,326 1,329 1,332 1,341 1,345 1,360 1,361 1,365 1,368 1,369 1,385 1,387 1,388 1,389 1,391 1,397 1,402 1,410 1,414 1,433 1,435 1,439 1,463 1,470 1,477 1,478 1,497 1,502 1,509 1,518 1,521 1,522 1,528 1,533 1,536 1,537 1,538 1,548 1,549 1,551 1,552 1,554 1,592 1,618 1,628 1,657 1,671 1,679 1,696 1,709 1,719 1,725 1,752 1,759 1,763 1,766 1,771 1,780 1,781 1,782 1,783 1,785 1,790 1,793 1,796 1,799 1,807 1,812 1,827 1,834 1,835 1,854 1,859 1,863 1,872 1,874 1,875 1,879 1,883 1,895 1,898 1,909 1,910 1,911 1}
{4 1,6 1,14 1,19 1,24 1,26 1,29 1,32 1,37 1,39 1,43 1,44 1,46 1,51 1,55 1,56 1,61 1,62 1,68 1,71 1,74 1,76 1,78 1,82 1,85 1,86 1,92 1,95 1,106 1,109 1,114 1,115 1,117 1,123 1,125 1,130 1,134 1,135 1,136 1,153 1,161 1,168 1,170 1,171 1,180 1,181 1,195 1,196 1,199 1,203 1,204 1,207 1,210 1,211 1,244 1,248 1,260 1,268 1,277 1,286 1,294 1,295 1,301 1,303 1,305 1,308 1,318 1,321 1,325 1,328 1,329 1,332 1,343 1,344 1,345 1,347 1,348 1,350 1,353 1,357 1,358 1,361 1,365 1,368 1,369 1,379 1,386 1,388 1,391 1,410 1,417 1,420 1,430 1,431 1,433 1,435 1,444 1,448 1,457 1,459 1,463 1,467 1,470 1,478 1,482 1,491 1,492 1,496 1,497 1,508 1,512 1,515 1,518 1,521 1,528 1,536 1,538 1,541 1,548 1,550 1,551 1,552 1,553 1,567 1,568 1,569 1,570 1,574 1,583 1,584 1,585 1,586 1,588 1,592 1,600 1,601 1,603 1,611 1,629 1,634 1,635 1,644 1,656 1,657 1,667 1,675 1,676 1,679 1,680 1,681 1,684 1,686 1,688 1,701 1,703 1,709 1,714 1,720 1,743 1,746 1,755 1,758 1,763 1,768 1,769 1,770 1,779 1,782 1,783 1,784 1,788 1,789 1,790 1,791 1,792 1,794 1,795 1,796 1,801 1,804 1,807 1,815 1,823 1,834 1,835 1,836 1,837 1,838 1,840 1,841 1,854 1,858 1,859 1,867 1,869 1,873 1,875 1,879 1,880 1,881 1,883 1,887 1,892 1,893 1,895 1,903 1,904 1,909 1,911 1,913 1}
{4 1,6 1,14 1,29 1,37 1,39 1,45 1,47 1,51 1,56 1,71 1,83 1,85 1,114 1,119 1,157 1,164 1,182 1,205 1,218 1,220 1,233 1,245 1,271 1,277 1,286 1,321 1,328 1,331 1,333 1,335 1,336 1,338 1,355 1,369 1,373 1,388 1,391 1,402 1,417 1,426 1,454 1,475 1,483 1,484 1,497 1,518 1,528 1,540 1,541 1,548 1,549 1,557 1,567 1,691 1,693 1,698 1,703 1,709 1,740 1,759 1,766 1,782 1,783 1,786 1,788 1,789 1,795 1,796 1,802 1,807 1,849 1,854 1,883 1}
{0 1,1 1,2 1,3 1,4 1,6 1,37 1,39 1,49 1,55 1,69 1,117 1,163 1,220 1,225 1,244 1,286 1,311 1,328 1,355 1,365 1,369 1,383 1,388 1,391 1,392 1,400 1,447 1,448 1,453 1,485 1,501 1,509 1,515 1,528 1,536 1,537 1,559 1,595 1,610 1,640 1,654 1,657 1,685 1,690 1,715 1,726 1,783 1,786 1,796 1,802 1,807 1,821 1,844 1,854 1,860 1,867 1,879 1,883 1}
{4 1,6 1,19 1,24 1,39 1,45 1,55 1,56 1,61 1,76 1,92 1,93 1,94 1,114 1,123 1,126 1,161 1,168 1,182 1,186 1,210 1,228 1,243 1,256 1,277 1,291 1,294 1,295 1,300 1,301 1,305 1,306 1,307 1,308 1,329 1,358 1,361 1,365 1,369 1,386 1,388 1,391 1,417 1,419 1,441 1,453 1,457 1,468 1,470 1,491 1,495 1,497 1,512 1,513 1,518 1,528 1,536 1,538 1,539 1,548 1,561 1,567 1,583 1,586 1,615 1,657 1,667 1,668 1,675 1,679 1,684 1,725 1,731 1,750 1,763 1,779 1,782 1,783 1,788 1,790 1,796 1,799 1,800 1,804 1,807 1,822 1,823 1,833 1,834 1,854 1,863 1,867 1,869 1,870 1,871 1,875 1,883 1,885 1,890 1,909 1,913 1}
{4 1,6 1,14 1,24 1,29 1,32 1,39 1,41 1,43 1,46 1,48 1,51 1,55 1,61 1,71 1,85 1,87 1,114 1,134 1,144 1,152 1,169 1,177 1,179 1,181 1,196 1,210 1,212 1,224 1,233 1,234 1,247 1,275 1,276 1,277 1,286 1,300 1,305 1,310 1,313 1,315 1,321 1,325 1,328 1,329 1,330 1,335 1,338 1,339 1,353 1,358 1,361 1,369 1,380 1,386 1,388 1,391 1,399 1,409 1,419 1,441 1,450 1,453 1,458 1,470 1,483 1,494 1,497 1,502 1,508 1,515 1,518 1,528 1,536 1,538 1,540 1,545 1,552 1,587 1,625 1,626 1,642 1,657 1,667 1,693 1,698 1,709 1,714 1,751 1,760 1,763 1,782 1,783 1,786 1,797 1,802 1,803 1,804 1,807 1,819 1,821 1,832 1,834 1,835 1,837 1,845 1,853 1,854 1,856 1,859 1,864 1,867 1,869 1,872 1,877 1,878 1,883 1,885 1}
{4 1,23 1,24 1,37 1,39 1,51 1,53 1,55 1,56 1,80 1,82 1,114 1,123 1,153 1,158 1,213 1,228 1,235 1,267 1,277 1,300 1,305 1,307 1,310 1,326 1,332 1,337 1,339 1,345 1,369 1,386 1,388 1,391 1,433 1,457 1,460 1,472 1,518 1,522 1,528 1,536 1,538 1,539 1,567 1,604 1,618 1,647 1,657 1,667 1,709 1,725 1,732 1,754 1,763 1,782 1,783 1,785 1,789 1,790 1,791 1,798 1,807 1,815 1,820 1,822 1,825 1,858 1,869 1,870 1,879 1,883 1,885 1,887 1,890 1,909 1,911 1,912 1}
{4 1,6 1,19 1,24 1,32 1,37 1,39 1,43 1,45 1,51 1,55 1,56 1,68 1,76 1,82 1,85 1,114 1,116 1,130 1,143 1,170 1,176 1,177 1,180 1,195 1,210 1,213 1,219 1,228 1,232 1,243 1,247 1,277 1,279 1,284 1,300 1,302 1,310 1,317 1,319 1,321 1,329 1,332 1,339 1,345 1,361 1,363 1,365 1,369 1,386 1,388 1,391 1,407 1,428 1,431 1,433 1,437 1,439 1,459 1,463 1,468 1,471 1,491 1,510 1,515 1,518 1,521 1,528 1,536 1,551 1,567 1,592 1,593 1,595 1,604 1,611 1,612 1,619 1,625 1,627 1,628 1,647 1,657 1,670 1,687 1,695 1,709 1,714 1,715 1,716 1,754 1,763 1,782 1,783 1,786 1,788 1,790 1,792 1,793 1,794 1,796 1,800 1,807 1,825 1,835 1,846 1,852 1,855 1,867 1,872 1,875 1,877 1,879 1,883 1,886 1,895 1,909 1,911 1,913 1}
{4 1,17 1,39 1,50 1,56 1,61 1,82 1,159 1,168 1,234 1,263 1,277 1,300 1,308 1,361 1,363 1,365 1,388 1,425 1,442 1,453 1,470 1,478 1,497 1,506 1,536 1,541 1,587 1,588 1,629 1,695 1,758 1,782 1,783 1,788 1,792 1,794 1,796 1,863 1}
{4 1,5 1,6 1,24 1,36 1,55 1,114 1,115 1,123 1,152 1,164 1,195 1,210 1,228 1,307 1,329 1,336 1,337 1,357 1,362 1,369 1,388 1,391 1,404 1,460 1,488 1,516 1,518 1,521 1,528 1,538 1,539 1,589 1,603 1,657 1,703 1,732 1,763 1,782 1,783 1,784 1,785 1,790 1,807 1,815 1,819 1,825 1,854 1,858 1,859 1,890 1,895 1,909 1,912 1}
{0 1,1 1,2 1,33 1,39 1,49 1,62 1,73 1,82 1,90 1,101 1,105 1,109 1,115 1,119 1,141 1,145 1,151 1,173 1,206 1,228 1,277 1,353 1,356 1,369 1,372 1,417 1,423 1,448 1,476 1,502 1,509 1,519 1,552 1,571 1,572 1,579 1,635 1,636 1,657 1,661 1,685 1,695 1,724 1,734 1,770 1,796 1,815 1,866 1,874 1,887 1,901 1,908 1,913 1}
{4 1,24 1,39 1,43 1,55 1,61 1,70 1,74 1,82 1,86 1,97 1,108 1,114 1,117 1,118 1,123 1,130 1,139 1,168 1,170 1,182 1,204 1,209 1,213 1,217 1,220 1,228 1,232 1,235 1,271 1,277 1,286 1,298 1,309 1,321 1,324 1,326 1,328 1,329 1,361 1,369 1,381 1,386 1,388 1,391 1,392 1,402 1,426 1,431 1,433 1,434 1,439 1,448 1,453 1,456 1,468 1,484 1,491 1,497 1,499 1,505 1,515 1,518 1,520 1,528 1,536 1,578 1,600 1,643 1,677 1,690 1,692 1,706 1,709 1,721 1,746 1,757 1,759 1,763 1,764 1,779 1,782 1,783 1,786 1,789 1,796 1,807 1,809 1,811 1,812 1,817 1,822 1,836 1,837 1,854 1,856 1,862 1,883 1,891 1,909 1,911 1}
{4 1,16 1,24 1,39 1,55 1,82 1,114 1,117 1,157 1,163 1,207 1,210 1,213 1,225 1,228 1,244 1,249 1,250 1,286 1,305 1,328 1,335 1,337 1,361 1,365 1,369 1,383 1,386 1,388 1,391 1,409 1,447 1,453 1,460 1,468 1,469 1,472 1,515 1,518 1,528 1,536 1,538 1,595 1,625 1,640 1,654 1,657 1,685 1,705 1,709 1,715 1,720 1,726 1,732 1,763 1,782 1,783 1,796 1,804 1,807 1,815 1,825 1,854 1,867 1,883 1,890 1,909 1,912 1}
{0 1,1 1,2 1,4 1,49 1,82 1,90 1,115 1,170 1,206 1,228 1,277 1,357 1,361 1,388 1,391 1,398 1,417 1,519 1,528 1,552 1,567 1,593 1,657 1,685 1,695 1,783 1,785 1,788 1,796 1,798 1,807 1,809 1,854 1,875 1,913 1}
{4 1,6 1,29 1,31 1,39 1,43 1,45 1,51 1,55 1,82 1,104 1,114 1,119 1,138 1,152 1,204 1,207 1,210 1,220 1,228 1,268 1,277 1,308 1,335 1,361 1,369 1,391 1,398 1,409 1,453 1,457 1,478 1,497 1,515 1,518 1,528 1,536 1,539 1,565 1,619 1,628 1,672 1,696 1,714 1,715 1,741 1,763 1,782 1,796 1,800 1,807 1,834 1,849 1,857 1,883 1,891 1,895 1,896 1,909 1}
{14 1,32 1,39 1,46 1,54 1,55 1,63 1,82 1,106 1,148 1,153 1,207 1,228 1,232 1,239 1,286 1,337 1,350 1,361 1,369 1,457 1,520 1,528 1,551 1,552 1,657 1,732 1,739 1,763 1,782 1,783 1,785 1,788 1,807 1,815 1,867 1,870 1,879 1,896 1,912 1}
{4 1,39 1,44 1,55 1,70 1,83 1,85 1,101 1,106 1,117 1,132 1,207 1,220 1,295 1,301 1,317 1,321 1,328 1,332 1,335 1,354 1,361 1,369 1,388 1,409 1,417 1,433 1,435 1,518 1,528 1,538 1,541 1,583 1,586 1,698 1,716 1,718 1,746 1,783 1,790 1,860 1,865 1,874 1,877 1,913 1}
{4 1,43 1,56 1,88 1,115 1,121 1,231 1,328 1,335 1,361 1,376 1,391 1,402 1,453 1,454 1,497 1,528 1,536 1,538 1,541 1,699 1,764 1,796 1,807 1,879 1}
{4 1,15 1,21 1,23 1,29 1,32 1,37 1,39 1,43 1,51 1,56 1,67 1,80 1,82 1,85 1,86 1,97 1,99 1,112 1,113 1,123 1,153 1,159 1,186 1,195 1,204 1,207 1,209 1,211 1,225 1,228 1,233 1,243 1,249 1,259 1,267 1,271 1,277 1,286 1,305 1,308 1,329 1,339 1,342 1,361 1,365 1,369 1,384 1,388 1,391 1,393 1,402 1,404 1,437 1,453 1,454 1,456 1,457 1,463 1,465 1,469 1,471 1,472 1,477 1,483 1,490 1,491 1,495 1,497 1,509 1,518 1,521 1,522 1,528 1,529 1,536 1,537 1,541 1,552 1,555 1,616 1,647 1,668 1,709 1,716 1,721 1,725 1,739 1,775 1,782 1,783 1,784 1,786 1,788 1,790 1,793 1,798 1,800 1,807 1,809 1,811 1,812 1,820 1,831 1,835 1,854 1,858 1,867 1,868 1,870 1,875 1,879 1,883 1,904 1,906 1,909 1,911 1}
{4 1,11 1,24 1,32 1,35 1,37 1,39 1,51 1,54 1,56 1,61 1,71 1,72 1,74 1,76 1,79 1,81 1,82 1,83 1,92 1,94 1,114 1,120 1,123 1,134 1,136 1,152 1,168 1,170 1,177 1,180 1,181 1,204 1,213 1,228 1,243 1,257 1,261 1,264 1,270 1,277 1,281 1,282 1,289 1,300 1,313 1,318 1,319 1,326 1,329 1,332 1,342 1,345 1,347 1,349 1,361 1,369 1,388 1,389 1,391 1,398 1,423 1,425 1,428 1,433 1,438 1,445 1,449 1,453 1,456 1,463 1,464 1,479 1,491 1,497 1,515 1,518 1,521 1,528 1,538 1,539 1,541 1,548 1,549 1,552 1,553 1,554 1,559 1,563 1,567 1,576 1,578 1,580 1,583 1,585 1,588 1,597 1,600 1,618 1,623 1,624 1,629 1,630 1,657 1,660 1,676 1,707 1,714 1,720 1,755 1,763 1,769 1,773 1,775 1,779 1,782 1,783 1,784 1,785 1,790 1,793 1,796 1,797 1,805 1,807 1,820 1,823 1,837 1,844 1,854 1,858 1,871 1,875 1,880 1,883 1,907 1,909 1,913 1}
{1 1,2 1,3 1,4 1,6 1,24 1,39 1,41 1,51 1,55 1,61 1,67 1,82 1,83 1,87 1,99 1,114 1,121 1,123 1,128 1,146 1,152 1,174 1,198 1,204 1,221 1,223 1,229 1,235 1,244 1,253 1,254 1,277 1,305 1,308 1,310 1,321 1,325 1,329 1,335 1,353 1,357 1,361 1,365 1,369 1,388 1,391 1,399 1,402 1,409 1,410 1,428 1,437 1,445 1,449 1,453 1,463 1,470 1,473 1,482 1,496 1,497 1,507 1,528 1,538 1,548 1,552 1,553 1,564 1,567 1,586 1,625 1,629 1,630 1,645 1,655 1,657 1,660 1,667 1,679 1,690 1,695 1,709 1,716 1,727 1,745 1,759 1,763 1,764 1,780 1,781 1,782 1,783 1,785 1,786 1,788 1,793 1,807 1,820 1,822 1,854 1,856 1,860 1,861 1,865 1,867 1,870 1,872 1,874 1,877 1,878 1,884 1,885 1,895 1,907 1,909 1,911 1}
{4 1,6 1,29 1,39 1,45 1,51 1,82 1,145 1,153 1,155 1,156 1,182 1,183 1,207 1,225 1,235 1,254 1,277 1,286 1,315 1,361 1,365 1,369 1,382 1,388 1,391 1,407 1,409 1,420 1,421 1,528 1,536 1,541 1,542 1,621 1,657 1,777 1,781 1,782 1,783 1,796 1,807 1,817 1,854 1,866 1,867 1,869 1,879 1,895 1,911 1}
{4 1,70 1,81 1,82 1,85 1,168 1,182 1,242 1,277 1,300 1,304 1,328 1,339 1,361 1,365 1,369 1,370 1,388 1,453 1,463 1,497 1,515 1,528 1,541 1,593 1,601 1,606 1,627 1,633 1,656 1,675 1,680 1,714 1,752 1,781 1,783 1,796 1,804 1,807 1,854 1,913 1}
{4 1,6 1,9 1,11 1,39 1,85 1,104 1,115 1,117 1,127 1,214 1,257 1,286 1,313 1,321 1,329 1,332 1,342 1,345 1,353 1,357 1,369 1,399 1,427 1,454 1,473 1,491 1,518 1,528 1,535 1,536 1,538 1,552 1,558 1,612 1,613 1,615 1,627 1,628 1,647 1,657 1,702 1,761 1,779 1,782 1,783 1,786 1,790 1,796 1,807 1,816 1,818 1,820 1,834 1,839 1,854 1,873 1,890 1,892 1}
{4 1,6 1,14 1,24 1,37 1,39 1,61 1,82 1,83 1,170 1,192 1,195 1,204 1,222 1,225 1,244 1,321 1,329 1,332 1,361 1,365 1,383 1,388 1,391 1,426 1,478 1,504 1,518 1,541 1,616 1,657 1,705 1,726 1,752 1,753 1,763 1,782 1,783 1,848 1,854 1,865 1,877 1,895 1}
{4 1,6 1,16 1,19 1,24 1,32 1,37 1,39 1,43 1,55 1,56 1,61 1,67 1,70 1,71 1,77 1,82 1,85 1,107 1,109 1,114 1,120 1,121 1,122 1,123 1,136 1,152 1,176 1,177 1,186 1,195 1,198 1,204 1,213 1,219 1,228 1,235 1,239 1,241 1,249 1,253 1,257 1,259 1,268 1,277 1,278 1,286 1,292 1,294 1,295 1,300 1,308 1,321 1,328 1,329 1,332 1,344 1,345 1,349 1,354 1,361 1,365 1,369 1,386 1,391 1,404 1,405 1,417 1,423 1,426 1,437 1,453 1,463 1,464 1,470 1,478 1,497 1,500 1,505 1,510 1,512 1,515 1,518 1,520 1,523 1,528 1,536 1,538 1,541 1,545 1,548 1,552 1,560 1,561 1,574 1,575 1,576 1,583 1,584 1,588 1,597 1,623 1,630 1,631 1,638 1,657 1,666 1,667 1,676 1,679 1,694 1,696 1,702 1,703 1,707 1,709 1,716 1,719 1,763 1,770 1,779 1,782 1,783 1,788 1,796 1,800 1,804 1,807 1,819 1,821 1,823 1,832 1,835 1,841 1,852 1,854 1,856 1,859 1,867 1,869 1,870 1,875 1,879 1,883 1,887 1,895 1,903 1,909 1,913 1}
{4 1,6 1,24 1,28 1,32 1,39 1,51 1,55 1,61 1,82 1,87 1,114 1,123 1,126 1,135 1,137 1,176 1,189 1,195 1,204 1,210 1,228 1,233 1,249 1,270 1,277 1,299 1,300 1,303 1,308 1,324 1,334 1,336 1,344 1,345 1,354 1,361 1,365 1,369 1,388 1,391 1,404 1,407 1,409 1,417 1,433 1,434 1,440 1,453 1,491 1,495 1,497 1,508 1,510 1,520 1,528 1,529 1,534 1,535 1,539 1,552 1,567 1,591 1,630 1,657 1,690 1,694 1,709 1,714 1,715 1,721 1,763 1,782 1,783 1,785 1,790 1,796 1,801 1,802 1,807 1,813 1,822 1,859 1,867 1,875 1,879 1,883 1,903 1,909 1,911 1}
{0 1,1 1,2 1,3 1,4 1,10 1,24 1,29 1,35 1,37 1,39 1,43 1,49 1,51 1,56 1,61 1,69 1,77 1,80 1,82 1,84 1,85 1,92 1,93 1,106 1,112 1,115 1,116 1,117 1,121 1,132 1,137 1,148 1,164 1,175 1,177 1,192 1,211 1,220 1,223 1,253 1,268 1,271 1,272 1,273 1,274 1,277 1,281 1,286 1,291 1,307 1,314 1,328 1,329 1,336 1,355 1,356 1,365 1,369 1,371 1,374 1,386 1,388 1,391 1,392 1,400 1,421 1,422 1,425 1,430 1,443 1,453 1,454 1,456 1,457 1,463 1,468 1,485 1,486 1,489 1,491 1,493 1,501 1,509 1,528 1,536 1,541 1,548 1,551 1,552 1,559 1,566 1,573 1,582 1,610 1,623 1,629 1,634 1,654 1,656 1,657 1,659 1,672 1,688 1,690 1,697 1,709 1,711 1,712 1,714 1,725 1,730 1,754 1,770 1,774 1,779 1,782 1,783 1,789 1,801 1,804 1,807 1,817 1,823 1,834 1,836 1,837 1,840 1,845 1,846 1,854 1,855 1,857 1,859 1,865 1,867 1,869 1,873 1,879 1,883 1,890 1,895 1}
{4 1,24 1,27 1,28 1,31 1,37 1,39 1,43 1,51 1,55 1,56 1,61 1,76 1,83 1,91 1,92 1,114 1,115 1,117 1,120 1,123 1,125 1,129 1,148 1,161 1,168 1,171 1,195 1,198 1,204 1,207 1,233 1,240 1,244 1,245 1,270 1,277 1,294 1,313 1,328 1,329 1,331 1,332 1,336 1,345 1,357 1,361 1,365 1,369 1,374 1,388 1,391 1,392 1,399 1,402 1,405 1,407 1,417 1,425 1,437 1,444 1,448 1,454 1,457 1,458 1,471 1,478 1,491 1,492 1,493 1,497 1,515 1,518 1,521 1,528 1,536 1,538 1,541 1,561 1,584 1,600 1,615 1,628 1,631 1,657 1,667 1,695 1,703 1,704 1,752 1,763 1,769 1,779 1,782 1,783 1,788 1,790 1,792 1,796 1,807 1,811 1,812 1,816 1,822 1,854 1,859 1,867 1,875 1,877 1,879 1,880 1,883 1,887 1,903 1,907 1,909 1,911 1,913 1}
{4 1,5 1,6 1,18 1,24 1,39 1,55 1,61 1,104 1,114 1,143 1,195 1,207 1,271 1,277 1,285 1,286 1,321 1,342 1,361 1,369 1,388 1,391 1,409 1,425 1,433 1,437 1,482 1,483 1,497 1,502 1,528 1,536 1,539 1,601 1,609 1,657 1,667 1,672 1,714 1,716 1,782 1,783 1,785 1,790 1,796 1,807 1,812 1,813 1,835 1,849 1,854 1,869 1,883 1,893 1,904 1,909 1}
{4 1,39 1,94 1,112 1,196 1,277 1,300 1,361 1,369 1,398 1,437 1,489 1,535 1,536 1,666 1,716 1,763 1,782 1,783 1,800 1,828 1}
{6 1,55 1,73 1,117 1,305 1,339 1,357 1,361 1,369 1,439 1,579 1,592 1,661 1,769 1,911 1,913 1}
{4 1,6 1,8 1,9 1,13 1,14 1,17 1,20 1,22 1,24 1,26 1,29 1,30 1,31 1,32 1,33 1,35 1,37 1,38 1,39 1,48 1,49 1,51 1,52 1,54 1,55 1,56 1,58 1,59 1,61 1,62 1,65 1,66 1,68 1,70 1,77 1,78 1,79 1,82 1,83 1,84 1,85 1,86 1,87 1,89 1,98 1,99 1,106 1,114 1,115 1,119 1,123 1,125 1,126 1,129 1,130 1,132 1,133 1,138 1,142 1,143 1,145 1,147 1,151 1,152 1,156 1,159 1,162 1,164 1,167 1,168 1,169 1,170 1,175 1,176 1,177 1,178 1,179 1,181 1,183 1,184 1,189 1,190 1,193 1,194 1,195 1,201 1,202 1,203 1,204 1,213 1,214 1,215 1,220 1,222 1,223 1,229 1,230 1,232 1,235 1,241 1,250 1,260 1,265 1,268 1,269 1,271 1,272 1,274 1,277 1,279 1,281 1,286 1,289 1,291 1,292 1,293 1,296 1,299 1,315 1,316 1,320 1,321 1,322 1,323 1,324 1,328 1,329 1,331 1,333 1,334 1,340 1,342 1,343 1,351 1,354 1,358 1,360 1,361 1,365 1,369 1,371 1,373 1,377 1,378 1,380 1,382 1,385 1,386 1,388 1,390 1,391 1,393 1,414 1,425 1,427 1,431 1,432 1,434 1,436 1,440 1,447 1,448 1,451 1,453 1,456 1,461 1,468 1,473 1,481 1,488 1,491 1,493 1,495 1,496 1,502 1,505 1,508 1,509 1,510 1,511 1,515 1,516 1,517 1,518 1,519 1,523 1,525 1,528 1,531 1,532 1,535 1,536 1,538 1,539 1,541 1,545 1,548 1,551 1,553 1,555 1,556 1,559 1,560 1,563 1,564 1,567 1,568 1,571 1,588 1,591 1,596 1,601 1,603 1,604 1,607 1,608 1,611 1,612 1,613 1,621 1,622 1,623 1,629 1,631 1,632 1,637 1,639 1,640 1,641 1,642 1,644 1,645 1,648 1,657 1,658 1,673 1,676 1,686 1,687 1,688 1,689 1,695 1,700 1,701 1,703 1,704 1,710 1,711 1,714 1,717 1,722 1,730 1,732 1,735 1,737 1,739 1,741 1,742 1,746 1,748 1,752 1,760 1,761 1,762 1,765 1,766 1,770 1,772 1,777 1,779 1,782 1,783 1,784 1,785 1,788 1,789 1,790 1,796 1,798 1,801 1,802 1,805 1,807 1,816 1,818 1,823 1,824 1,825 1,828 1,830 1,831 1,834 1,835 1,836 1,837 1,838 1,839 1,840 1,841 1,847 1,849 1,850 1,851 1,854 1,855 1,859 1,860 1,863 1,865 1,866 1,869 1,870 1,871 1,872 1,873 1,875 1,879 1,883 1,884 1,885 1,886 1,893 1,900 1,903 1,904 1,908 1,910 1}
{4 1,9 1,14 1,23 1,24 1,32 1,39 1,45 1,51 1,55 1,61 1,85 1,87 1,107 1,137 1,152 1,158 1,186 1,192 1,200 1,204 1,210 1,228 1,243 1,245 1,267 1,277 1,284 1,286 1,289 1,305 1,328 1,329 1,361 1,365 1,369 1,375 1,386 1,388 1,391 1,397 1,416 1,435 1,438 1,441 1,449 1,463 1,506 1,515 1,518 1,522 1,528 1,532 1,535 1,536 1,541 1,552 1,560 1,562 1,567 1,607 1,647 1,657 1,660 1,690 1,707 1,752 1,763 1,768 1,782 1,783 1,784 1,789 1,790 1,796 1,804 1,805 1,807 1,810 1,828 1,834 1,836 1,854 1,858 1,865 1,866 1,869 1,875 1,903 1,909 1}
{4 1,6 1,18 1,24 1,31 1,39 1,45 1,51 1,83 1,87 1,114 1,148 1,172 1,182 1,195 1,204 1,210 1,259 1,267 1,286 1,300 1,313 1,321 1,332 1,361 1,365 1,369 1,378 1,388 1,391 1,399 1,409 1,417 1,435 1,438 1,439 1,513 1,518 1,528 1,536 1,548 1,552 1,567 1,572 1,576 1,586 1,593 1,659 1,666 1,679 1,709 1,768 1,769 1,770 1,782 1,783 1,784 1,790 1,796 1,804 1,807 1,826 1,854 1,859 1,861 1,867 1,869 1,877 1,903 1,909 1,913 1}
{4 1,5 1,6 1,9 1,13 1,14 1,16 1,17 1,20 1,22 1,24 1,29 1,30 1,33 1,35 1,37 1,39 1,41 1,42 1,43 1,49 1,51 1,54 1,56 1,57 1,61 1,62 1,65 1,67 1,77 1,82 1,83 1,84 1,85 1,86 1,87 1,91 1,93 1,96 1,98 1,99 1,100 1,103 1,104 1,106 1,114 1,115 1,116 1,119 1,120 1,121 1,122 1,123 1,124 1,125 1,126 1,128 1,130 1,132 1,133 1,134 1,136 1,137 1,142 1,143 1,147 1,150 1,152 1,157 1,162 1,163 1,164 1,166 1,168 1,170 1,175 1,176 1,177 1,181 1,189 1,191 1,192 1,193 1,194 1,195 1,201 1,202 1,203 1,204 1,205 1,208 1,209 1,214 1,215 1,219 1,220 1,222 1,223 1,224 1,225 1,230 1,231 1,232 1,235 1,239 1,243 1,245 1,248 1,250 1,252 1,253 1,258 1,259 1,260 1,264 1,265 1,270 1,271 1,272 1,275 1,277 1,280 1,281 1,284 1,286 1,291 1,292 1,293 1,299 1,300 1,302 1,303 1,304 1,309 1,313 1,315 1,320 1,321 1,322 1,327 1,328 1,329 1,332 1,334 1,336 1,338 1,339 1,340 1,342 1,343 1,345 1,351 1,357 1,358 1,360 1,361 1,365 1,368 1,369 1,370 1,371 1,372 1,373 1,374 1,377 1,380 1,384 1,385 1,386 1,387 1,388 1,390 1,391 1,392 1,394 1,399 1,403 1,407 1,409 1,410 1,411 1,412 1,414 1,416 1,417 1,420 1,422 1,425 1,429 1,432 1,433 1,438 1,439 1,440 1,441 1,442 1,451 1,453 1,454 1,456 1,459 1,461 1,463 1,464 1,468 1,472 1,473 1,474 1,481 1,488 1,489 1,491 1,493 1,495 1,496 1,498 1,502 1,503 1,505 1,509 1,510 1,511 1,515 1,516 1,517 1,518 1,521 1,523 1,524 1,528 1,531 1,535 1,536 1,537 1,538 1,539 1,541 1,547 1,548 1,549 1,551 1,552 1,553 1,554 1,555 1,556 1,559 1,560 1,563 1,564 1,565 1,567 1,571 1,587 1,589 1,591 1,596 1,598 1,603 1,604 1,607 1,608 1,609 1,611 1,612 1,613 1,616 1,617 1,623 1,625 1,629 1,632 1,637 1,639 1,642 1,644 1,645 1,648 1,650 1,651 1,657 1,658 1,659 1,660 1,661 1,667 1,669 1,670 1,672 1,673 1,674 1,677 1,679 1,682 1,687 1,688 1,689 1,691 1,693 1,695 1,696 1,698 1,699 1,700 1,701 1,703 1,707 1,709 1,714 1,718 1,723 1,730 1,735 1,736 1,739 1,740 1,741 1,742 1,748 1,749 1,752 1,754 1,756 1,759 1,761 1,762 1,763 1,764 1,765 1,769 1,770 1,772 1,777 1,778 1,779 1,782 1,783 1,784 1,785 1,786 1,788 1,789 1,790 1,796 1,798 1,801 1,802 1,804 1,805 1,807 1,809 1,810 1,812 1,816 1,817 1,818 1,820 1,821 1,823 1,824 1,825 1,828 1,829 1,830 1,831 1,834 1,836 1,837 1,840 1,846 1,850 1,851 1,854 1,855 1,858 1,859 1,860 1,861 1,863 1,865 1,866 1,867 1,869 1,870 1,871 1,872 1,873 1,874 1,875 1,876 1,877 1,879 1,883 1,884 1,885 1,886 1,890 1,893 1,895 1,897 1,903 1,904 1,907 1,908 1}
{4 1,6 1,24 1,82 1,97 1,181 1,228 1,277 1,339 1,361 1,369 1,439 1,491 1,500 1,567 1,627 1,671 1,765 1,780 1,781 1,783 1,796 1,798 1,807 1,846 1,860 1,875 1,909 1}
{4 1,39 1,51 1,76 1,82 1,104 1,114 1,117 1,123 1,140 1,152 1,174 1,177 1,178 1,179 1,204 1,210 1,213 1,245 1,262 1,270 1,286 1,294 1,295 1,328 1,329 1,353 1,361 1,365 1,369 1,374 1,382 1,388 1,391 1,402 1,423 1,436 1,449 1,482 1,497 1,509 1,528 1,536 1,541 1,545 1,552 1,601 1,657 1,661 1,679 1,695 1,715 1,730 1,750 1,754 1,763 1,769 1,783 1,784 1,788 1,791 1,796 1,804 1,807 1,817 1,824 1,834 1,835 1,865 1,869 1,875 1,876 1,909 1,913 1}
{4 1,29 1,37 1,39 1,43 1,55 1,85 1,100 1,108 1,123 1,152 1,208 1,221 1,228 1,243 1,274 1,327 1,328 1,329 1,369 1,388 1,391 1,433 1,450 1,456 1,470 1,491 1,493 1,518 1,528 1,541 1,557 1,604 1,630 1,684 1,709 1,714 1,715 1,727 1,745 1,763 1,775 1,782 1,783 1,796 1,807 1,862 1,871 1,872 1,883 1}
{4 1,6 1,9 1,14 1,34 1,39 1,43 1,51 1,55 1,61 1,82 1,92 1,114 1,117 1,152 1,166 1,167 1,200 1,210 1,216 1,271 1,277 1,283 1,286 1,300 1,329 1,357 1,361 1,369 1,388 1,394 1,459 1,501 1,506 1,528 1,536 1,539 1,549 1,562 1,567 1,568 1,585 1,625 1,629 1,630 1,658 1,679 1,680 1,707 1,709 1,713 1,728 1,741 1,763 1,779 1,782 1,783 1,790 1,793 1,803 1,807 1,834 1,856 1,875 1,879 1,893 1,895 1,909 1}
{4 1,51 1,61 1,128 1,152 1,213 1,219 1,228 1,262 1,277 1,361 1,369 1,388 1,423 1,453 1,505 1,509 1,536 1,541 1,576 1,588 1,661 1,705 1,708 1,754 1,783 1,807 1,817 1,877 1,883 1,909 1,913 1}
{4 1,6 1,9 1,12 1,13 1,14 1,15 1,17 1,20 1,22 1,24 1,26 1,29 1,30 1,32 1,33 1,35 1,37 1,38 1,39 1,40 1,43 1,45 1,46 1,48 1,49 1,51 1,55 1,56 1,58 1,59 1,61 1,65 1,68 1,76 1,82 1,83 1,85 1,86 1,89 1,92 1,93 1,98 1,101 1,106 1,112 1,114 1,115 1,116 1,119 1,123 1,124 1,126 1,128 1,129 1,130 1,132 1,133 1,142 1,143 1,146 1,147 1,148 1,152 1,157 1,158 1,163 1,164 1,165 1,168 1,169 1,174 1,175 1,176 1,177 1,178 1,179 1,181 1,182 1,183 1,184 1,189 1,190 1,193 1,194 1,198 1,201 1,202 1,203 1,204 1,208 1,215 1,220 1,222 1,224 1,230 1,232 1,235 1,244 1,246 1,248 1,250 1,258 1,265 1,268 1,269 1,270 1,271 1,272 1,274 1,275 1,277 1,280 1,281 1,286 1,287 1,291 1,292 1,293 1,299 1,303 1,309 1,314 1,315 1,316 1,320 1,321 1,328 1,329 1,331 1,334 1,340 1,342 1,343 1,346 1,351 1,357 1,360 1,361 1,365 1,366 1,367 1,368 1,369 1,371 1,372 1,373 1,376 1,377 1,379 1,380 1,382 1,385 1,388 1,390 1,391 1,393 1,399 1,402 1,412 1,414 1,418 1,425 1,427 1,429 1,430 1,431 1,433 1,434 1,436 1,440 1,441 1,450 1,451 1,453 1,455 1,456 1,459 1,463 1,468 1,470 1,473 1,474 1,481 1,491 1,493 1,497 1,498 1,502 1,503 1,505 1,508 1,509 1,510 1,511 1,515 1,517 1,518 1,519 1,521 1,523 1,525 1,528 1,531 1,532 1,536 1,537 1,538 1,539 1,541 1,548 1,551 1,552 1,555 1,556 1,559 1,560 1,561 1,563 1,564 1,567 1,570 1,580 1,583 1,585 1,587 1,588 1,596 1,598 1,603 1,605 1,606 1,607 1,611 1,612 1,617 1,619 1,621 1,622 1,625 1,632 1,633 1,634 1,637 1,639 1,640 1,642 1,644 1,648 1,656 1,657 1,658 1,660 1,661 1,670 1,683 1,685 1,686 1,687 1,688 1,689 1,691 1,695 1,700 1,701 1,703 1,709 1,711 1,714 1,718 1,722 1,723 1,730 1,737 1,741 1,742 1,747 1,749 1,752 1,756 1,759 1,760 1,761 1,762 1,763 1,769 1,772 1,776 1,779 1,780 1,782 1,783 1,784 1,786 1,789 1,790 1,793 1,796 1,798 1,801 1,802 1,804 1,805 1,807 1,808 1,812 1,816 1,823 1,825 1,828 1,830 1,831 1,833 1,834 1,835 1,836 1,837 1,839 1,840 1,841 1,844 1,849 1,850 1,854 1,855 1,859 1,860 1,861 1,863 1,865 1,867 1,869 1,870 1,872 1,873 1,875 1,879 1,883 1,886 1,889 1,895 1,898 1,903 1,904 1,909 1,910 1,911 1}
{4 1,6 1,34 1,39 1,49 1,51 1,55 1,69 1,82 1,88 1,117 1,138 1,146 1,152 1,178 1,207 1,210 1,216 1,220 1,225 1,239 1,277 1,283 1,288 1,311 1,328 1,329 1,330 1,354 1,355 1,361 1,369 1,383 1,388 1,391 1,392 1,400 1,402 1,447 1,448 1,485 1,500 1,501 1,515 1,528 1,536 1,549 1,567 1,595 1,602 1,629 1,640 1,654 1,657 1,658 1,685 1,709 1,715 1,728 1,763 1,782 1,783 1,788 1,790 1,796 1,798 1,802 1,803 1,807 1,821 1,844 1,854 1,859 1,867 1,869 1,872 1,875 1,893 1}
{4 1,6 1,9 1,11 1,19 1,24 1,30 1,32 1,37 1,39 1,43 1,45 1,51 1,53 1,55 1,56 1,61 1,68 1,76 1,82 1,85 1,91 1,92 1,102 1,104 1,114 1,123 1,143 1,153 1,165 1,170 1,176 1,196 1,204 1,207 1,208 1,210 1,213 1,219 1,228 1,232 1,243 1,244 1,247 1,271 1,277 1,279 1,284 1,291 1,294 1,301 1,310 1,315 1,317 1,319 1,321 1,328 1,329 1,332 1,339 1,344 1,345 1,357 1,361 1,363 1,364 1,365 1,369 1,383 1,388 1,389 1,391 1,402 1,409 1,428 1,431 1,433 1,437 1,439 1,459 1,468 1,470 1,479 1,491 1,497 1,510 1,515 1,518 1,520 1,521 1,528 1,529 1,532 1,533 1,535 1,536 1,538 1,539 1,541 1,549 1,551 1,552 1,567 1,580 1,583 1,586 1,588 1,592 1,593 1,595 1,603 1,611 1,612 1,616 1,619 1,625 1,627 1,628 1,637 1,647 1,649 1,657 1,660 1,667 1,669 1,670 1,695 1,709 1,714 1,715 1,716 1,717 1,720 1,754 1,763 1,767 1,779 1,782 1,783 1,784 1,785 1,786 1,788 1,789 1,790 1,791 1,792 1,793 1,796 1,800 1,807 1,814 1,823 1,825 1,834 1,843 1,846 1,852 1,854 1,855 1,858 1,867 1,869 1,871 1,875 1,877 1,879 1,883 1,886 1,906 1,909 1,913 1}
{4 1,5 1,6 1,10 1,13 1,14 1,20 1,21 1,24 1,26 1,28 1,29 1,30 1,33 1,35 1,37 1,39 1,43 1,49 1,51 1,56 1,61 1,65 1,66 1,68 1,71 1,73 1,77 1,79 1,82 1,84 1,85 1,86 1,89 1,93 1,98 1,105 1,106 1,107 1,114 1,115 1,116 1,119 1,123 1,124 1,126 1,128 1,131 1,132 1,133 1,137 1,138 1,141 1,143 1,145 1,147 1,151 1,152 1,156 1,162 1,164 1,166 1,168 1,174 1,175 1,176 1,177 1,181 1,182 1,183 1,193 1,194 1,201 1,204 1,207 1,208 1,209 1,214 1,215 1,219 1,223 1,224 1,226 1,228 1,230 1,231 1,232 1,234 1,235 1,239 1,243 1,245 1,248 1,252 1,253 1,264 1,265 1,271 1,272 1,274 1,275 1,277 1,280 1,281 1,282 1,283 1,286 1,287 1,289 1,291 1,299 1,300 1,303 1,304 1,305 1,312 1,321 1,327 1,328 1,329 1,330 1,331 1,334 1,340 1,342 1,351 1,354 1,355 1,356 1,358 1,360 1,361 1,365 1,368 1,369 1,370 1,371 1,372 1,373 1,375 1,377 1,379 1,380 1,382 1,385 1,386 1,388 1,391 1,392 1,393 1,411 1,412 1,414 1,417 1,418 1,419 1,422 1,427 1,430 1,433 1,437 1,440 1,441 1,451 1,453 1,454 1,458 1,463 1,467 1,468 1,473 1,474 1,478 1,481 1,485 1,489 1,491 1,492 1,493 1,496 1,498 1,502 1,504 1,505 1,509 1,510 1,511 1,512 1,515 1,518 1,519 1,523 1,525 1,528 1,531 1,536 1,537 1,538 1,539 1,541 1,547 1,548 1,549 1,550 1,552 1,553 1,555 1,556 1,559 1,560 1,563 1,564 1,567 1,568 1,571 1,579 1,587 1,596 1,603 1,607 1,608 1,609 1,612 1,613 1,614 1,615 1,621 1,631 1,632 1,633 1,639 1,640 1,641 1,642 1,648 1,649 1,651 1,657 1,659 1,660 1,661 1,669 1,670 1,672 1,673 1,679 1,683 1,686 1,687 1,689 1,690 1,691 1,695 1,699 1,700 1,701 1,703 1,704 1,707 1,709 1,710 1,711 1,714 1,715 1,718 1,723 1,729 1,730 1,734 1,737 1,741 1,745 1,746 1,747 1,748 1,749 1,752 1,754 1,759 1,761 1,762 1,763 1,766 1,769 1,776 1,777 1,778 1,779 1,782 1,783 1,784 1,785 1,788 1,789 1,790 1,796 1,798 1,799 1,801 1,802 1,804 1,807 1,810 1,818 1,823 1,825 1,828 1,830 1,831 1,833 1,837 1,838 1,849 1,850 1,854 1,855 1,858 1,859 1,860 1,863 1,865 1,866 1,869 1,870 1,871 1,872 1,874 1,875 1,879 1,883 1,884 1,885 1,887 1,890 1,893 1,903 1,904 1,908 1,909 1,911 1}
{82 1,121 1,365 1,388 1,394 1,509 1,526 1,538 1,695 1,783 1}
{4 1,11 1,14 1,24 1,37 1,39 1,53 1,54 1,55 1,76 1,77 1,78 1,83 1,86 1,99 1,114 1,123 1,127 1,144 1,152 1,194 1,201 1,208 1,210 1,219 1,228 1,232 1,235 1,243 1,267 1,271 1,277 1,282 1,286 1,308 1,318 1,319 1,324 1,330 1,332 1,342 1,344 1,345 1,347 1,350 1,357 1,361 1,362 1,365 1,369 1,383 1,386 1,388 1,391 1,423 1,432 1,433 1,436 1,438 1,439 1,441 1,442 1,443 1,456 1,460 1,463 1,468 1,479 1,500 1,518 1,528 1,533 1,534 1,536 1,538 1,539 1,541 1,548 1,585 1,588 1,616 1,625 1,630 1,657 1,679 1,680 1,681 1,682 1,709 1,746 1,763 1,766 1,773 1,782 1,783 1,788 1,790 1,793 1,802 1,804 1,807 1,823 1,834 1,854 1,855 1,856 1,859 1,863 1,869 1,874 1,875 1,902 1,903 1,904 1,909 1,913 1}
{4 1,35 1,39 1,55 1,59 1,74 1,114 1,123 1,171 1,207 1,210 1,228 1,298 1,309 1,342 1,361 1,369 1,370 1,388 1,426 1,433 1,442 1,448 1,470 1,475 1,518 1,524 1,528 1,529 1,536 1,538 1,539 1,541 1,556 1,578 1,611 1,671 1,749 1,763 1,772 1,782 1,783 1,789 1,796 1,807 1,833 1,842 1,843 1,862 1,883 1,909 1}
{4 1,6 1,18 1,39 1,43 1,51 1,55 1,61 1,64 1,82 1,88 1,114 1,115 1,123 1,130 1,152 1,168 1,172 1,182 1,195 1,220 1,229 1,233 1,243 1,267 1,317 1,329 1,357 1,361 1,365 1,369 1,388 1,391 1,432 1,441 1,467 1,478 1,493 1,515 1,521 1,526 1,528 1,536 1,540 1,567 1,603 1,627 1,642 1,655 1,657 1,687 1,709 1,725 1,738 1,763 1,782 1,783 1,798 1,802 1,826 1,833 1,848 1,854 1,865 1,867 1,869 1,895 1,904 1,911 1}
{4 1,13 1,32 1,39 1,55 1,56 1,58 1,61 1,70 1,72 1,75 1,85 1,107 1,115 1,120 1,123 1,152 1,168 1,176 1,195 1,204 1,211 1,213 1,219 1,228 1,234 1,258 1,271 1,277 1,286 1,294 1,295 1,300 1,321 1,325 1,328 1,329 1,331 1,332 1,345 1,353 1,354 1,355 1,361 1,365 1,369 1,386 1,388 1,391 1,402 1,412 1,434 1,455 1,495 1,497 1,509 1,517 1,518 1,528 1,529 1,536 1,538 1,539 1,548 1,574 1,575 1,584 1,600 1,644 1,654 1,655 1,657 1,676 1,679 1,703 1,709 1,714 1,731 1,750 1,752 1,763 1,782 1,783 1,788 1,796 1,807 1,821 1,822 1,823 1,834 1,849 1,854 1,867 1,869 1,879 1,883 1,887 1,895 1,909 1,913 1}
{4 1,6 1,22 1,24 1,32 1,39 1,41 1,43 1,51 1,61 1,82 1,83 1,91 1,108 1,114 1,123 1,129 1,138 1,152 1,157 1,171 1,174 1,201 1,204 1,211 1,222 1,228 1,248 1,260 1,277 1,280 1,286 1,298 1,300 1,304 1,309 1,329 1,354 1,358 1,361 1,369 1,388 1,390 1,391 1,396 1,425 1,433 1,440 1,455 1,497 1,515 1,518 1,528 1,531 1,536 1,538 1,541 1,557 1,564 1,569 1,578 1,623 1,680 1,688 1,716 1,748 1,761 1,779 1,782 1,783 1,784 1,788 1,790 1,807 1,824 1,852 1,871 1,872 1,883 1,885 1,891 1,895 1,909 1}
{0 1,1 1,2 1,3 1,4 1,6 1,18 1,24 1,29 1,31 1,32 1,35 1,37 1,39 1,43 1,49 1,51 1,56 1,60 1,65 1,67 1,68 1,69 1,77 1,82 1,83 1,85 1,86 1,87 1,92 1,99 1,112 1,114 1,115 1,117 1,122 1,123 1,138 1,153 1,162 1,166 1,169 1,175 1,187 1,191 1,192 1,193 1,194 1,197 1,204 1,210 1,211 1,224 1,225 1,255 1,256 1,257 1,260 1,267 1,272 1,277 1,286 1,292 1,307 1,308 1,314 1,322 1,328 1,329 1,332 1,336 1,357 1,358 1,361 1,365 1,367 1,369 1,373 1,375 1,379 1,382 1,386 1,388 1,391 1,392 1,396 1,400 1,402 1,404 1,407 1,411 1,417 1,420 1,427 1,431 1,453 1,456 1,462 1,463 1,464 1,477 1,480 1,481 1,485 1,486 1,489 1,491 1,495 1,501 1,502 1,509 1,521 1,523 1,527 1,528 1,529 1,536 1,539 1,541 1,542 1,548 1,551 1,552 1,559 1,567 1,596 1,597 1,607 1,609 1,610 1,611 1,616 1,617 1,623 1,625 1,629 1,632 1,633 1,644 1,652 1,654 1,657 1,659 1,663 1,667 1,673 1,677 1,703 1,704 1,707 1,712 1,714 1,725 1,726 1,739 1,746 1,747 1,754 1,763 1,774 1,779 1,782 1,783 1,786 1,789 1,792 1,793 1,798 1,801 1,804 1,805 1,806 1,807 1,812 1,813 1,822 1,823 1,825 1,833 1,834 1,836 1,837 1,840 1,849 1,852 1,854 1,858 1,859 1,863 1,872 1,873 1,879 1,883 1,890 1,895 1,903 1,904 1,909 1}
{4 1,24 1,27 1,28 1,31 1,32 1,37 1,39 1,43 1,51 1,56 1,61 1,76 1,82 1,83 1,91 1,92 1,114 1,115 1,120 1,123 1,125 1,129 1,141 1,148 1,168 1,171 1,181 1,195 1,198 1,204 1,207 1,228 1,233 1,244 1,245 1,270 1,277 1,294 1,304 1,313 1,328 1,329 1,331 1,332 1,336 1,345 1,357 1,361 1,369 1,374 1,388 1,391 1,392 1,399 1,402 1,417 1,425 1,427 1,437 1,442 1,448 1,454 1,457 1,463 1,471 1,478 1,491 1,492 1,493 1,497 1,515 1,518 1,521 1,528 1,536 1,538 1,539 1,541 1,584 1,600 1,614 1,628 1,650 1,667 1,695 1,703 1,704 1,709 1,716 1,752 1,763 1,769 1,779 1,782 1,783 1,785 1,786 1,789 1,790 1,792 1,796 1,797 1,807 1,811 1,812 1,815 1,822 1,854 1,859 1,863 1,872 1,873 1,875 1,877 1,879 1,880 1,881 1,883 1,887 1,895 1,903 1,907 1,909 1,911 1,913 1}
{4 1,14 1,28 1,31 1,36 1,39 1,41 1,43 1,46 1,51 1,53 1,55 1,82 1,83 1,85 1,115 1,122 1,137 1,147 1,152 1,182 1,195 1,196 1,204 1,208 1,210 1,213 1,220 1,221 1,228 1,243 1,245 1,249 1,267 1,271 1,277 1,286 1,291 1,304 1,315 1,321 1,328 1,329 1,331 1,332 1,339 1,342 1,345 1,361 1,365 1,369 1,386 1,388 1,389 1,391 1,402 1,409 1,410 1,439 1,453 1,468 1,473 1,497 1,508 1,515 1,518 1,528 1,529 1,536 1,538 1,541 1,549 1,550 1,552 1,561 1,567 1,570 1,588 1,616 1,625 1,628 1,634 1,657 1,660 1,677 1,679 1,691 1,703 1,714 1,719 1,727 1,745 1,746 1,760 1,763 1,765 1,766 1,782 1,783 1,784 1,788 1,789 1,790 1,791 1,792 1,796 1,807 1,863 1,867 1,869 1,875 1,879 1,883 1,902 1,904 1,909 1,911 1}
{0 1,1 1,2 1,3 1,4 1,6 1,14 1,39 1,41 1,49 1,51 1,56 1,58 1,61 1,67 1,69 1,77 1,83 1,85 1,86 1,99 1,108 1,114 1,115 1,117 1,119 1,148 1,155 1,174 1,175 1,177 1,178 1,181 1,182 1,185 1,193 1,214 1,225 1,246 1,254 1,256 1,267 1,270 1,271 1,272 1,273 1,277 1,284 1,286 1,308 1,315 1,321 1,328 1,332 1,339 1,344 1,345 1,346 1,357 1,361 1,365 1,366 1,367 1,369 1,382 1,384 1,388 1,391 1,392 1,400 1,401 1,409 1,413 1,431 1,433 1,453 1,462 1,465 1,487 1,493 1,501 1,509 1,512 1,528 1,529 1,531 1,536 1,539 1,542 1,552 1,559 1,561 1,582 1,588 1,597 1,609 1,610 1,616 1,617 1,625 1,633 1,642 1,646 1,654 1,657 1,659 1,663 1,673 1,674 1,678 1,686 1,691 1,712 1,714 1,725 1,726 1,729 1,746 1,752 1,761 1,771 1,782 1,783 1,784 1,786 1,790 1,792 1,796 1,798 1,801 1,804 1,807 1,823 1,828 1,831 1,840 1,845 1,853 1,854 1,859 1,861 1,865 1,870 1,872 1,875 1,883 1,884 1,895 1,904 1}
{4 1,6 1,17 1,22 1,39 1,46 1,51 1,56 1,61 1,65 1,72 1,76 1,82 1,83 1,86 1,93 1,114 1,120 1,177 1,196 1,210 1,239 1,271 1,277 1,282 1,294 1,295 1,296 1,300 1,331 1,361 1,365 1,369 1,388 1,389 1,391 1,402 1,409 1,417 1,427 1,433 1,435 1,439 1,441 1,453 1,463 1,468 1,484 1,495 1,497 1,498 1,514 1,528 1,536 1,537 1,539 1,541 1,552 1,567 1,574 1,583 1,625 1,657 1,709 1,731 1,763 1,764 1,773 1,779 1,782 1,783 1,784 1,785 1,786 1,790 1,793 1,798 1,801 1,804 1,807 1,812 1,823 1,828 1,834 1,852 1,863 1,873 1,909 1,911 1,913 1}
{4 1,39 1,45 1,51 1,61 1,123 1,171 1,212 1,231 1,369 1,377 1,388 1,391 1,392 1,402 1,501 1,536 1,538 1,611 1,783 1,804 1,837 1,867 1}
{4 1,14 1,32 1,39 1,43 1,82 1,114 1,123 1,204 1,228 1,277 1,281 1,300 1,308 1,328 1,361 1,365 1,369 1,391 1,402 1,439 1,444 1,484 1,528 1,537 1,541 1,607 1,782 1,783 1,796 1,799 1,800 1,801 1,805 1,807 1,843 1,849 1,883 1,895 1,909 1}
{4 1,6 1,11 1,13 1,37 1,39 1,55 1,61 1,62 1,82 1,85 1,86 1,122 1,123 1,137 1,196 1,219 1,220 1,228 1,234 1,258 1,268 1,277 1,294 1,295 1,302 1,328 1,350 1,357 1,359 1,361 1,365 1,369 1,388 1,391 1,402 1,412 1,437 1,454 1,455 1,491 1,497 1,509 1,510 1,528 1,536 1,541 1,657 1,703 1,739 1,740 1,763 1,782 1,783 1,800 1,804 1,807 1,821 1,854 1,863 1,869 1,872 1,883 1,895 1,913 1}
{4 1,6 1,7 1,12 1,18 1,24 1,29 1,32 1,37 1,39 1,45 1,56 1,82 1,88 1,115 1,130 1,144 1,157 1,199 1,207 1,231 1,233 1,251 1,253 1,270 1,271 1,276 1,277 1,286 1,288 1,291 1,321 1,326 1,328 1,335 1,361 1,365 1,369 1,388 1,391 1,426 1,454 1,468 1,470 1,493 1,494 1,497 1,503 1,518 1,528 1,538 1,539 1,541 1,546 1,548 1,551 1,559 1,567 1,599 1,600 1,603 1,623 1,627 1,640 1,657 1,695 1,714 1,717 1,722 1,723 1,745 1,749 1,750 1,759 1,760 1,782 1,783 1,786 1,788 1,793 1,796 1,798 1,807 1,820 1,828 1,854 1,863 1,865 1,868 1,875 1,904 1,909 1,911 1}
{0 1,1 1,2 1,3 1,4 1,10 1,29 1,31 1,37 1,38 1,39 1,49 1,51 1,54 1,56 1,60 1,61 1,65 1,69 1,77 1,82 1,83 1,85 1,86 1,87 1,88 1,92 1,99 1,106 1,112 1,114 1,115 1,117 1,164 1,168 1,178 1,194 1,204 1,214 1,220 1,223 1,224 1,225 1,232 1,236 1,244 1,253 1,264 1,270 1,273 1,277 1,286 1,307 1,314 1,328 1,329 1,331 1,332 1,342 1,346 1,354 1,355 1,357 1,365 1,369 1,372 1,377 1,384 1,386 1,387 1,388 1,391 1,392 1,395 1,400 1,402 1,419 1,420 1,430 1,432 1,433 1,437 1,439 1,441 1,442 1,453 1,457 1,462 1,468 1,478 1,485 1,491 1,498 1,501 1,502 1,509 1,518 1,520 1,521 1,527 1,528 1,536 1,538 1,541 1,542 1,545 1,548 1,550 1,551 1,552 1,559 1,567 1,588 1,589 1,597 1,605 1,607 1,609 1,610 1,611 1,620 1,633 1,654 1,657 1,659 1,660 1,663 1,672 1,674 1,682 1,686 1,690 1,700 1,708 1,709 1,714 1,716 1,722 1,723 1,725 1,726 1,731 1,742 1,746 1,752 1,764 1,769 1,772 1,774 1,779 1,782 1,783 1,784 1,786 1,787 1,788 1,789 1,790 1,792 1,796 1,798 1,801 1,805 1,807 1,822 1,823 1,825 1,829 1,830 1,834 1,835 1,836 1,840 1,843 1,844 1,849 1,851 1,858 1,859 1,860 1,865 1,867 1,873 1,875 1,879 1,883 1,884 1,891 1,893 1,895 1,903 1,907 1,909 1}
{4 1,6 1,19 1,24 1,29 1,32 1,39 1,51 1,55 1,56 1,61 1,70 1,82 1,85 1,92 1,94 1,107 1,114 1,152 1,154 1,176 1,194 1,204 1,209 1,210 1,213 1,220 1,228 1,235 1,236 1,261 1,266 1,271 1,277 1,294 1,295 1,318 1,329 1,332 1,342 1,344 1,347 1,358 1,361 1,362 1,365 1,369 1,388 1,391 1,402 1,417 1,433 1,469 1,479 1,482 1,491 1,495 1,508 1,515 1,516 1,518 1,520 1,521 1,528 1,536 1,538 1,541 1,548 1,567 1,568 1,603 1,630 1,654 1,657 1,676 1,679 1,682 1,691 1,695 1,696 1,709 1,731 1,750 1,763 1,779 1,782 1,783 1,784 1,785 1,788 1,796 1,804 1,807 1,821 1,822 1,829 1,834 1,838 1,852 1,854 1,863 1,867 1,869 1,872 1,877 1,883 1,895 1,909 1,913 1}
{4 1,28 1,32 1,39 1,45 1,61 1,85 1,87 1,93 1,114 1,209 1,211 1,241 1,277 1,328 1,329 1,361 1,365 1,392 1,405 1,442 1,457 1,463 1,497 1,509 1,536 1,541 1,633 1,642 1,730 1,755 1,780 1,782 1,783 1,796 1,806 1,807 1,840 1,852 1,867 1}
{0 1,4 1,5 1,6 1,16 1,48 1,82 1,114 1,152 1,164 1,277 1,357 1,361 1,362 1,365 1,391 1,404 1,426 1,469 1,490 1,501 1,515 1,516 1,518 1,528 1,536 1,541 1,638 1,680 1,714 1,782 1,783 1,788 1,790 1,796 1,807 1,865 1,895 1}
{4 1,29 1,55 1,61 1,82 1,114 1,152 1,172 1,182 1,210 1,228 1,294 1,304 1,305 1,361 1,369 1,371 1,388 1,391 1,396 1,404 1,470 1,478 1,482 1,493 1,510 1,536 1,567 1,647 1,660 1,715 1,740 1,763 1,782 1,783 1,784 1,793 1,796 1,807 1,809 1,810 1,820 1,826 1,854 1,895 1,913 1}
{4 1,6 1,7 1,12 1,18 1,24 1,29 1,32 1,37 1,39 1,45 1,55 1,56 1,64 1,82 1,88 1,115 1,120 1,130 1,144 1,157 1,199 1,207 1,231 1,233 1,251 1,253 1,270 1,271 1,276 1,277 1,286 1,288 1,291 1,321 1,326 1,328 1,335 1,361 1,365 1,369 1,388 1,391 1,407 1,426 1,454 1,468 1,470 1,493 1,494 1,497 1,503 1,518 1,528 1,538 1,539 1,541 1,546 1,548 1,551 1,559 1,567 1,599 1,600 1,603 1,623 1,627 1,640 1,657 1,695 1,714 1,717 1,722 1,723 1,735 1,745 1,749 1,750 1,759 1,760 1,782 1,783 1,786 1,788 1,793 1,796 1,798 1,807 1,820 1,828 1,854 1,863 1,865 1,868 1,875 1,904 1,909 1,911 1}
{4 1,37 1,39 1,121 1,177 1,185 1,210 1,234 1,265 1,277 1,304 1,361 1,363 1,365 1,369 1,384 1,388 1,391 1,409 1,433 1,437 1,536 1,573 1,607 1,647 1,657 1,763 1,782 1,783 1,788 1,789 1,805 1,909 1}
{4 1,39 1,55 1,168 1,228 1,296 1,361 1,369 1,388 1,391 1,457 1,528 1,782 1,783 1,788 1,807 1,858 1,913 1}
{9 1,51 1,92 1,117 1,182 1,223 1,302 1,353 1,361 1,369 1,388 1,391 1,399 1,528 1,535 1,612 1,647 1,657 1,783 1,793 1,839 1,909 1}
{4 1,29 1,34 1,39 1,50 1,51 1,55 1,56 1,58 1,61 1,65 1,82 1,115 1,123 1,153 1,179 1,204 1,234 1,263 1,277 1,286 1,287 1,300 1,311 1,339 1,345 1,357 1,365 1,369 1,377 1,379 1,385 1,388 1,391 1,420 1,436 1,441 1,442 1,463 1,468 1,501 1,510 1,512 1,518 1,521 1,528 1,535 1,536 1,548 1,550 1,587 1,592 1,593 1,594 1,617 1,671 1,679 1,683 1,697 1,704 1,709 1,725 1,782 1,783 1,789 1,796 1,807 1,823 1,834 1,836 1,872 1,879 1,883 1,885 1,911 1}
{4 1,7 1,11 1,14 1,15 1,22 1,24 1,39 1,51 1,56 1,61 1,74 1,76 1,77 1,95 1,102 1,115 1,122 1,140 1,148 1,175 1,177 1,180 1,219 1,223 1,243 1,258 1,266 1,267 1,274 1,277 1,281 1,282 1,284 1,296 1,306 1,321 1,339 1,354 1,361 1,369 1,371 1,388 1,391 1,393 1,396 1,398 1,399 1,417 1,439 1,453 1,463 1,479 1,497 1,524 1,528 1,536 1,541 1,554 1,584 1,585 1,593 1,654 1,657 1,676 1,679 1,691 1,709 1,714 1,719 1,723 1,746 1,758 1,761 1,773 1,782 1,783 1,784 1,788 1,796 1,797 1,799 1,804 1,807 1,811 1,812 1,816 1,851 1,854 1,860 1,872 1,875 1,903 1,904 1,906 1,909 1,913 1}
{4 1,6 1,39 1,45 1,82 1,114 1,123 1,124 1,168 1,204 1,205 1,207 1,210 1,227 1,277 1,286 1,300 1,305 1,321 1,328 1,332 1,361 1,365 1,388 1,391 1,409 1,449 1,488 1,491 1,497 1,509 1,528 1,538 1,655 1,659 1,669 1,709 1,763 1,766 1,782 1,783 1,796 1,807 1,849 1,854 1,863 1,867 1,883 1,908 1}
{4 1,32 1,34 1,37 1,39 1,55 1,82 1,104 1,115 1,117 1,123 1,228 1,268 1,277 1,361 1,369 1,388 1,398 1,444 1,455 1,501 1,541 1,607 1,642 1,782 1,788 1,807 1,872 1}
{55 1,76 1,95 1,113 1,114 1,171 1,208 1,228 1,242 1,332 1,358 1,369 1,388 1,394 1,433 1,518 1,528 1,744 1,763 1,783 1,807 1,849 1,883 1,913 1}
{4 1,24 1,29 1,32 1,37 1,39 1,41 1,43 1,51 1,56 1,61 1,82 1,83 1,84 1,114 1,115 1,128 1,152 1,166 1,174 1,175 1,181 1,182 1,183 1,199 1,210 1,220 1,228 1,231 1,253 1,264 1,266 1,267 1,277 1,300 1,308 1,328 1,329 1,332 1,361 1,368 1,369 1,378 1,388 1,391 1,409 1,424 1,444 1,451 1,453 1,468 1,493 1,496 1,497 1,518 1,528 1,529 1,536 1,539 1,541 1,564 1,570 1,596 1,599 1,641 1,645 1,660 1,681 1,695 1,699 1,700 1,709 1,714 1,737 1,748 1,752 1,760 1,763 1,766 1,780 1,782 1,783 1,788 1,789 1,796 1,798 1,804 1,807 1,818 1,834 1,836 1,837 1,840 1,841 1,854 1,863 1,875 1,883 1,884 1,890 1,906 1,909 1}
{4 1,24 1,26 1,37 1,39 1,55 1,82 1,95 1,98 1,114 1,115 1,126 1,152 1,170 1,177 1,181 1,193 1,196 1,204 1,233 1,246 1,247 1,271 1,273 1,277 1,286 1,315 1,329 1,341 1,357 1,361 1,362 1,369 1,385 1,388 1,391 1,416 1,428 1,429 1,433 1,469 1,470 1,472 1,501 1,502 1,528 1,541 1,561 1,568 1,609 1,631 1,657 1,658 1,681 1,697 1,711 1,714 1,715 1,721 1,737 1,763 1,775 1,776 1,782 1,783 1,791 1,796 1,807 1,854 1,859 1,867 1,870 1,875 1,879 1,883 1,893 1,899 1,903 1}
{4 1,5 1,6 1,14 1,24 1,30 1,31 1,32 1,39 1,41 1,43 1,45 1,51 1,55 1,56 1,61 1,72 1,76 1,77 1,82 1,83 1,85 1,87 1,91 1,92 1,93 1,105 1,114 1,115 1,117 1,123 1,125 1,171 1,181 1,182 1,195 1,196 1,203 1,207 1,210 1,211 1,223 1,228 1,232 1,235 1,240 1,249 1,260 1,277 1,286 1,294 1,315 1,328 1,329 1,332 1,345 1,357 1,361 1,365 1,369 1,374 1,388 1,391 1,410 1,437 1,444 1,459 1,463 1,472 1,491 1,492 1,493 1,497 1,515 1,518 1,528 1,532 1,536 1,538 1,539 1,541 1,561 1,577 1,583 1,584 1,585 1,588 1,592 1,614 1,643 1,657 1,667 1,668 1,675 1,676 1,679 1,695 1,709 1,744 1,763 1,764 1,769 1,770 1,779 1,782 1,783 1,784 1,786 1,788 1,796 1,798 1,805 1,807 1,812 1,815 1,833 1,835 1,837 1,852 1,854 1,858 1,859 1,867 1,869 1,872 1,880 1,881 1,882 1,883 1,887 1,895 1,907 1,909 1,911 1,913 1}
{4 1,24 1,39 1,43 1,51 1,53 1,82 1,84 1,85 1,104 1,114 1,115 1,129 1,135 1,152 1,181 1,202 1,208 1,210 1,228 1,248 1,291 1,308 1,328 1,329 1,330 1,345 1,364 1,365 1,369 1,374 1,388 1,391 1,410 1,411 1,424 1,449 1,458 1,463 1,468 1,472 1,473 1,474 1,491 1,493 1,496 1,507 1,508 1,518 1,521 1,528 1,539 1,541 1,552 1,561 1,563 1,616 1,627 1,643 1,655 1,657 1,672 1,673 1,679 1,763 1,782 1,783 1,784 1,785 1,786 1,788 1,789 1,790 1,796 1,805 1,807 1,821 1,834 1,835 1,852 1,859 1,867 1,907 1,909 1}
{4 1,24 1,29 1,31 1,34 1,37 1,39 1,43 1,54 1,56 1,61 1,68 1,77 1,82 1,87 1,114 1,115 1,123 1,132 1,137 1,145 1,162 1,164 1,168 1,174 1,175 1,177 1,178 1,185 1,191 1,194 1,195 1,204 1,210 1,211 1,213 1,220 1,222 1,231 1,232 1,235 1,273 1,277 1,286 1,287 1,291 1,300 1,302 1,308 1,311 1,321 1,323 1,328 1,329 1,332 1,339 1,345 1,358 1,361 1,367 1,369 1,379 1,386 1,388 1,391 1,398 1,404 1,409 1,420 1,428 1,431 1,433 1,437 1,440 1,441 1,452 1,455 1,463 1,464 1,466 1,470 1,491 1,493 1,495 1,497 1,501 1,504 1,518 1,519 1,528 1,536 1,537 1,538 1,541 1,542 1,552 1,559 1,580 1,587 1,592 1,594 1,607 1,615 1,626 1,631 1,641 1,657 1,660 1,667 1,671 1,679 1,681 1,690 1,695 1,697 1,709 1,712 1,714 1,725 1,743 1,748 1,753 1,761 1,762 1,763 1,776 1,782 1,783 1,789 1,796 1,807 1,819 1,837 1,846 1,850 1,854 1,859 1,869 1,870 1,872 1,873 1,874 1,876 1,879 1,883 1,892 1,895 1,909 1}
{4 1,39 1,55 1,61 1,72 1,114 1,117 1,152 1,160 1,171 1,180 1,210 1,238 1,241 1,265 1,281 1,300 1,361 1,369 1,433 1,457 1,515 1,516 1,536 1,541 1,585 1,600 1,603 1,615 1,661 1,672 1,783 1,790 1,863 1,869 1,913 1}
{4 1,6 1,14 1,18 1,24 1,30 1,37 1,39 1,43 1,51 1,55 1,56 1,61 1,82 1,85 1,98 1,108 1,114 1,115 1,124 1,128 1,134 1,141 1,147 1,177 1,181 1,189 1,196 1,201 1,204 1,210 1,214 1,220 1,222 1,228 1,265 1,267 1,274 1,277 1,280 1,286 1,311 1,328 1,329 1,332 1,338 1,344 1,345 1,358 1,361 1,365 1,369 1,377 1,385 1,388 1,391 1,392 1,410 1,430 1,451 1,453 1,473 1,474 1,497 1,509 1,515 1,518 1,528 1,536 1,540 1,541 1,548 1,561 1,563 1,564 1,573 1,591 1,601 1,627 1,633 1,634 1,642 1,644 1,657 1,668 1,669 1,680 1,686 1,693 1,703 1,707 1,709 1,742 1,752 1,763 1,782 1,783 1,784 1,785 1,788 1,789 1,790 1,796 1,807 1,818 1,822 1,823 1,828 1,830 1,841 1,846 1,849 1,854 1,861 1,867 1,872 1,875 1,883 1,890 1,895 1,896 1,904 1}
{4 1,31 1,55 1,56 1,82 1,117 1,121 1,183 1,228 1,286 1,311 1,361 1,365 1,369 1,388 1,394 1,400 1,411 1,417 1,453 1,501 1,509 1,515 1,526 1,538 1,539 1,582 1,625 1,632 1,672 1,695 1,738 1,783 1,792 1,832 1,890 1,903 1,909 1}
